 vasp.4.6.28 25Jul05 complex
 executed on             LinuxIFC date 2017.01.11  08:07:24

 INCAR:
 POTCAR:   PAW_PBE Cu 05Jan2001
 POTCAR:   PAW_PBE Cu 05Jan2001
   VRHFIN =Cu: d10 p1

   TITEL  = PAW_PBE Cu 05Jan2001
   POMASS =   63.546; ZVAL   =   11.000    mass and valenz
   ENMAX  =  273.214; ENMIN  =  204.910 eV
   QCUT   =   -4.481; QGAM   =    8.962    optimization parameters

   Description
     l     E      TYP  RCUT    TYP  RCUT
     2   .000     23  2.300
     2   .000     23  2.300
     0   .000     23  2.300
     0   .000     23  2.300
     1  -.200     23  2.300
     1   .000     23  2.300
     3   .000      7   .000

 PAW_PBE Cu 05Jan2001                   :

 POSCAR: Cu
  positions in direct lattice

 ion  position               nearest neighbor table
   1  0.001  0.000  0.000-   9 2.69  11 2.69  17 2.69  21 2.69  25 2.70  27 2.70  29 2.70  31 2.70
                            10 2.71  18 2.71  12 2.71  22 2.71
   2  0.500  0.000  0.000-   9 2.70  10 2.70  11 2.70  12 2.70  17 2.70  18 2.70  21 2.70  22 2.70
                            26 2.70  28 2.70  30 2.70  32 2.70
   3  0.000  0.500  0.000-   9 2.70  10 2.70  11 2.70  12 2.70  19 2.70  20 2.70  23 2.70  24 2.70
                            25 2.70  27 2.70  29 2.70  31 2.70
   4  0.500  0.500  0.000-   9 2.70  10 2.70  11 2.70  12 2.70  19 2.70  20 2.70  23 2.70  24 2.70
                            26 2.70  28 2.70  30 2.70  32 2.70
   5  0.000  0.000  0.500-  13 2.70  14 2.70  15 2.70  16 2.70  17 2.70  18 2.70  21 2.70  22 2.70
                            25 2.70  27 2.70  29 2.70  31 2.70
   6  0.500  0.000  0.500-  13 2.70  14 2.70  15 2.70  16 2.70  17 2.70  18 2.70  21 2.70  22 2.70
                            26 2.70  28 2.70  30 2.70  32 2.70
   7  0.000  0.500  0.500-  13 2.70  14 2.70  15 2.70  16 2.70  19 2.70  20 2.70  23 2.70  24 2.70
                            25 2.70  27 2.70  29 2.70  31 2.70
   8  0.500  0.500  0.500-  13 2.70  14 2.70  15 2.70  16 2.70  19 2.70  20 2.70  23 2.70  24 2.70
                            26 2.70  28 2.70  30 2.70  32 2.70
   9  0.250  0.250  0.000-   1 2.69   2 2.70   3 2.70   4 2.70  17 2.70  19 2.70  21 2.70  23 2.70
                            25 2.70  26 2.70  29 2.70  30 2.70
  10  0.750  0.250  0.000-   2 2.70   3 2.70   4 2.70  18 2.70  20 2.70  22 2.70  24 2.70  25 2.70
                            26 2.70  29 2.70  30 2.70   1 2.71
  11  0.250  0.750  0.000-   1 2.69   2 2.70   3 2.70   4 2.70  17 2.70  19 2.70  21 2.70  23 2.70
                            27 2.70  28 2.70  31 2.70  32 2.70
  12  0.750  0.750  0.000-   2 2.70   3 2.70   4 2.70  18 2.70  20 2.70  22 2.70  24 2.70  27 2.70
                            28 2.70  31 2.70  32 2.70   1 2.71
  13  0.250  0.250  0.500-   5 2.70   6 2.70   7 2.70   8 2.70  17 2.70  19 2.70  21 2.70  23 2.70
                            25 2.70  26 2.70  29 2.70  30 2.70
  14  0.750  0.250  0.500-   5 2.70   6 2.70   7 2.70   8 2.70  18 2.70  20 2.70  22 2.70  24 2.70
                            25 2.70  26 2.70  29 2.70  30 2.70
  15  0.250  0.750  0.500-   5 2.70   6 2.70   7 2.70   8 2.70  17 2.70  19 2.70  21 2.70  23 2.70
                            27 2.70  28 2.70  31 2.70  32 2.70
  16  0.750  0.750  0.500-   5 2.70   6 2.70   7 2.70   8 2.70  18 2.70  20 2.70  22 2.70  24 2.70
                            27 2.70  28 2.70  31 2.70  32 2.70
  17  0.250  0.000  0.250-   1 2.69   2 2.70   5 2.70   6 2.70   9 2.70  11 2.70  13 2.70  15 2.70
                            25 2.70  26 2.70  27 2.70  28 2.70
  18  0.750  0.000  0.250-   2 2.70   5 2.70   6 2.70  10 2.70  12 2.70  14 2.70  16 2.70  25 2.70
                            26 2.70  27 2.70  28 2.70   1 2.71
  19  0.250  0.500  0.250-   3 2.70   4 2.70   7 2.70   8 2.70   9 2.70  11 2.70  13 2.70  15 2.70
                            25 2.70  26 2.70  27 2.70  28 2.70
  20  0.750  0.500  0.250-   3 2.70   4 2.70   7 2.70   8 2.70  10 2.70  12 2.70  14 2.70  16 2.70
                            25 2.70  26 2.70  27 2.70  28 2.70
  21  0.250  0.000  0.750-   1 2.69   2 2.70   5 2.70   6 2.70   9 2.70  11 2.70  13 2.70  15 2.70
                            29 2.70  30 2.70  31 2.70  32 2.70
  22  0.750  0.000  0.750-   2 2.70   5 2.70   6 2.70  10 2.70  12 2.70  14 2.70  16 2.70  29 2.70
                            30 2.70  31 2.70  32 2.70   1 2.71
  23  0.250  0.500  0.750-   3 2.70   4 2.70   7 2.70   8 2.70   9 2.70  11 2.70  13 2.70  15 2.70
                            29 2.70  30 2.70  31 2.70  32 2.70
  24  0.750  0.500  0.750-   3 2.70   4 2.70   7 2.70   8 2.70  10 2.70  12 2.70  14 2.70  16 2.70
                            29 2.70  30 2.70  31 2.70  32 2.70
  25  0.000  0.250  0.250-   3 2.70   5 2.70   7 2.70   9 2.70  10 2.70  13 2.70  14 2.70  17 2.70
                            18 2.70  19 2.70  20 2.70   1 2.70
  26  0.500  0.250  0.250-   2 2.70   4 2.70   6 2.70   8 2.70   9 2.70  10 2.70  13 2.70  14 2.70
                            17 2.70  18 2.70  19 2.70  20 2.70
  27  0.000  0.750  0.250-   3 2.70   5 2.70   7 2.70  11 2.70  12 2.70  15 2.70  16 2.70  17 2.70
                            18 2.70  19 2.70  20 2.70   1 2.70
  28  0.500  0.750  0.250-   2 2.70   4 2.70   6 2.70   8 2.70  11 2.70  12 2.70  15 2.70  16 2.70
                            17 2.70  18 2.70  19 2.70  20 2.70
  29  0.000  0.250  0.750-   3 2.70   5 2.70   7 2.70   9 2.70  10 2.70  13 2.70  14 2.70  21 2.70
                            22 2.70  23 2.70  24 2.70   1 2.70
  30  0.500  0.250  0.750-   2 2.70   4 2.70   6 2.70   8 2.70   9 2.70  10 2.70  13 2.70  14 2.70
                            21 2.70  22 2.70  23 2.70  24 2.70
  31  0.000  0.750  0.750-   3 2.70   5 2.70   7 2.70  11 2.70  12 2.70  15 2.70  16 2.70  21 2.70
                            22 2.70  23 2.70  24 2.70   1 2.70
  32  0.500  0.750  0.750-   2 2.70   4 2.70   6 2.70   8 2.70  11 2.70  12 2.70  15 2.70  16 2.70
                            21 2.70  22 2.70  23 2.70  24 2.70

  LATTYP: Found a simple cubic cell.
 ALAT       =     7.6364732046

  Lattice vectors:

 A1 = (   7.6364732046,   0.0000000000,   0.0000000000)
 A2 = (   0.0000000000,   7.6364732046,   0.0000000000)
 A3 = (   0.0000000000,   0.0000000000,   7.6364732046)
 Subroutine PRICEL returns:
 Original cell was already a primitive cell.

Analysis of symmetry for initial positions (statically):

 Routine SETGRP: Setting up the symmetry group for a
 simple cubic supercell.

 Subroutine GETGRP returns: Found  8 space group operations
 (whereof  8 operations were pure point group operations)
 out of a pool of 48 trial point group operations.

The static configuration has the point symmetry C_4v.

Analysis of symmetry for dynamics (positions and initial velocities):

 Subroutine DYNSYM returns: Found  8 space group operations
 (whereof  8 operations were pure point group operations)
 out of a pool of  8 trial space group operations
 (whereof  8 operations were pure point group operations)
 and found also     1 'primitive' translations

The dynamic configuration has the point symmetry C_4v.

 KPOINTS: Automatic mesh

Automatic generation of k-mesh.

 Subroutine IBZKPT returns following result:

 Found    196 irreducible k-points:

 Following reciprocal coordinates:
            Coordinates               Weight
  0.000000  0.000000  0.000000      1.000000
  0.083333  0.000000  0.000000      2.000000
  0.166667  0.000000  0.000000      2.000000
  0.250000  0.000000  0.000000      2.000000
  0.333333  0.000000  0.000000      2.000000
  0.416667  0.000000  0.000000      2.000000
  0.500000  0.000000  0.000000      1.000000
  0.000000  0.083333  0.000000      4.000000
  0.083333  0.083333  0.000000      8.000000
  0.166667  0.083333  0.000000      8.000000
  0.250000  0.083333  0.000000      8.000000
  0.333333  0.083333  0.000000      8.000000
  0.416667  0.083333  0.000000      8.000000
  0.500000  0.083333  0.000000      4.000000
  0.000000  0.166667  0.000000      4.000000
  0.083333  0.166667  0.000000      8.000000
  0.166667  0.166667  0.000000      8.000000
  0.250000  0.166667  0.000000      8.000000
  0.333333  0.166667  0.000000      8.000000
  0.416667  0.166667  0.000000      8.000000
  0.500000  0.166667  0.000000      4.000000
  0.000000  0.250000  0.000000      4.000000
  0.083333  0.250000  0.000000      8.000000
  0.166667  0.250000  0.000000      8.000000
  0.250000  0.250000  0.000000      8.000000
  0.333333  0.250000  0.000000      8.000000
  0.416667  0.250000  0.000000      8.000000
  0.500000  0.250000  0.000000      4.000000
  0.000000  0.333333  0.000000      4.000000
  0.083333  0.333333  0.000000      8.000000
  0.166667  0.333333  0.000000      8.000000
  0.250000  0.333333  0.000000      8.000000
  0.333333  0.333333  0.000000      8.000000
  0.416667  0.333333  0.000000      8.000000
  0.500000  0.333333  0.000000      4.000000
  0.000000  0.416667  0.000000      4.000000
  0.083333  0.416667  0.000000      8.000000
  0.166667  0.416667  0.000000      8.000000
  0.250000  0.416667  0.000000      8.000000
  0.333333  0.416667  0.000000      8.000000
  0.416667  0.416667  0.000000      8.000000
  0.500000  0.416667  0.000000      4.000000
  0.000000  0.500000  0.000000      2.000000
  0.083333  0.500000  0.000000      4.000000
  0.166667  0.500000  0.000000      4.000000
  0.250000  0.500000  0.000000      4.000000
  0.333333  0.500000  0.000000      4.000000
  0.416667  0.500000  0.000000      4.000000
  0.500000  0.500000  0.000000      2.000000
  0.000000  0.083333  0.083333      4.000000
  0.083333  0.083333  0.083333      8.000000
  0.166667  0.083333  0.083333      8.000000
  0.250000  0.083333  0.083333      8.000000
  0.333333  0.083333  0.083333      8.000000
  0.416667  0.083333  0.083333      8.000000
  0.500000  0.083333  0.083333      4.000000
  0.000000  0.166667  0.083333      8.000000
  0.083333  0.166667  0.083333     16.000000
  0.166667  0.166667  0.083333     16.000000
  0.250000  0.166667  0.083333     16.000000
[...]
  0.500000  0.416667  0.416667      4.000000
  0.000000  0.500000  0.416667      4.000000
  0.083333  0.500000  0.416667      8.000000
  0.166667  0.500000  0.416667      8.000000
  0.250000  0.500000  0.416667      8.000000
  0.333333  0.500000  0.416667      8.000000
  0.416667  0.500000  0.416667      8.000000
  0.500000  0.500000  0.416667      4.000000
  0.000000  0.500000  0.500000      1.000000
  0.083333  0.500000  0.500000      2.000000
  0.166667  0.500000  0.500000      2.000000
  0.250000  0.500000  0.500000      2.000000
  0.333333  0.500000  0.500000      2.000000
  0.416667  0.500000  0.500000      2.000000
  0.500000  0.500000  0.500000      1.000000

 Following cartesian coordinates:
            Coordinates               Weight
  0.000000  0.000000  0.000000      1.000000
  0.010913  0.000000  0.000000      2.000000
  0.021825  0.000000  0.000000      2.000000
  0.032738  0.000000  0.000000      2.000000
  0.043650  0.000000  0.000000      2.000000
  0.054563  0.000000  0.000000      2.000000
  0.065475  0.000000  0.000000      1.000000
  0.000000  0.010913  0.000000      4.000000
  0.010913  0.010913  0.000000      8.000000
  0.021825  0.010913  0.000000      8.000000
[...]
  average eigenvalue GAMMA=   0.6389
  0.6389

[...]

 eigenvalue-minimisations  : 43792
 total energy-change (2. order) :-0.7131894E-07  (-0.4218690E-09)
 number of electron  352.0000008 magnetization
 augmentation part   231.2591369 magnetization

[...]

 Broyden mixing:
  rms(total) = 0.62729E-05    rms(broyden)= 0.62314E-05
  rms(prec ) = 0.81382E-05
  weight for this iteration     100.00

 eigenvalues of (default mixing * dielectric matrix)
  average eigenvalue GAMMA=   1.1588
  2.6740  2.6740  2.3724  1.9219  1.9219  1.0765  1.0765  0.9049  0.9049  0.6744
  0.6949  0.3637  0.3507  0.3337  0.3004  0.2957

[...]

----------------------------------------- Iteration    1(  22)  ---------------------------------------

 eigenvalue-minimisations  : 43672
 total energy-change (2. order) : 0.3346941E-08  (-0.1433039E-10)
 number of electron  352.0000008 magnetization
 augmentation part   231.2591723 magnetization

 Free energy of the ion-electron system (eV)
  alpha Z        PSCENC =      2937.81789222
  Ewald energy   TEWEN  =    -33475.30839066
  -1/2 Hartree   DENC   =    -10800.07024251
  -V(xc)+E(xc)   XCENC  =      1359.90466709
  PAW double counting   =     34510.70788467   -39124.13780755
  entropy T*S    EENTRO =        -0.00097262
  eigenvalues    EBANDS =       -36.20606031
  atomic energy  EATOM  =     44511.34040493
  free energy    TOTEN  =      -115.95262475 eV

  energy without entropy =     -115.95165213  energy(sigma->0) =     -115.95213844

 average (electrostatic) potential at core
  the test charge radii are     1.0053
  (the norm of the test charge is              1.0000)
       1 -40.8765       2 -40.8765       3 -40.8764       4 -40.8764       5 -40.8764
       6 -40.8764       7 -40.8764       8 -40.8764       9 -40.8775      10 -40.8754
      11 -40.8775      12 -40.8754      13 -40.8765      14 -40.8764      15 -40.8765
      16 -40.8764      17 -40.8775      18 -40.8754      19 -40.8765      20 -40.8764
      21 -40.8775      22 -40.8754      23 -40.8765      24 -40.8764      25 -40.8764
      26 -40.8764      27 -40.8764      28 -40.8764      29 -40.8764      30 -40.8764
      31 -40.8764      32 -40.8764

 E-fermi :   2.4926     XC(G=0): -11.8676     alpha+bet : -8.1732
   add alpha+bet to get absolut eigen values

 k-point   1 :       0.0000    0.0000    0.0000
  band No.  band energies     occupation
      1      -5.6699      2.00000
      2      -3.1782      2.00000
      3      -3.1753      2.00000
      4      -3.1753      2.00000
      5      -3.1753      2.00000
      6      -3.1753      2.00000
      7      -3.1725      2.00000
      8      -1.7502      2.00000
      9      -1.7502      2.00000
     10      -1.7502      2.00000
     11      -1.7502      2.00000
     12      -1.5234      2.00000
     13      -1.5234      2.00000
     14      -1.5234      2.00000
     15      -1.4600      2.00000
     16      -1.4578      2.00000
     17      -1.4578      2.00000
     18      -1.4568      2.00000
     19      -1.4567      2.00000
     20      -1.4567      2.00000
     21      -1.4567      2.00000
     22      -1.4567      2.00000
     23      -1.4565      2.00000
     24      -1.4555      2.00000
     25      -1.4555      2.00000
     26      -1.4533      2.00000
     27      -1.1675      2.00000
     28      -1.1675      2.00000
     29      -1.1675      2.00000
     30      -0.9218      2.00000
     31      -0.9203      2.00000
     32      -0.9203      2.00000
     33      -0.9203      2.00000
     34      -0.9203      2.00000
     35      -0.9189      2.00000
     36      -0.6416      2.00000
     37      -0.6403      2.00000
     38      -0.6403      2.00000
     39      -0.6403      2.00000
     40      -0.6403      2.00000
     41      -0.6390      2.00000
     42      -0.4687      2.00000
     43      -0.4673      2.00000
     44      -0.4673      2.00000
     45      -0.4655      2.00000
     46      -0.4655      2.00000
     47      -0.4654      2.00000
     48      -0.4654      2.00000
     49      -0.4653      2.00000
     50      -0.4653      2.00000
     51      -0.4653      2.00000
     52      -0.4653      2.00000
     53      -0.4652      2.00000
     54      -0.4652      2.00000
     55      -0.4651      2.00000
     56      -0.4651      2.00000
     57      -0.4650      2.00000
     58      -0.4650      2.00000
     59      -0.4650      2.00000
     60      -0.4649      2.00000
[...]
    198       8.1447      0.00000
    199       8.1450      0.00000
    200       8.1450      0.00000
    201       8.1483      0.00000
    202       8.1483      0.00000
    203       8.5374      0.00000
    204       8.5374      0.00000
    205       8.5374      0.00000
    206       9.9011      0.00000
    207       9.9013      0.00000
    208       9.9014      0.00000
    209       9.9014      0.00000
    210       9.9014      0.00000
    211       9.9017      0.00000
    212      10.0739      0.00000

[...]

 k-point 196 :       0.5000    0.5000    0.5000
  band No.  band energies     occupation
      1      -3.7679      2.00000
      2      -3.7645      2.00000
      3      -3.7645      2.00000
      4      -3.7641      2.00000
      5      -3.7639      2.00000
      6      -3.7635      2.00000
      7      -3.7635      2.00000
      8      -3.7602      2.00000
      9      -1.1949      2.00000
     10      -1.1940      2.00000
     11      -1.1940      2.00000
     12      -1.1937      2.00000
     13      -1.1934      2.00000
     14      -1.1932      2.00000
     15      -1.1924      2.00000
     16      -1.1924      2.00000
     17      -1.1924      2.00000
     18      -1.1923      2.00000
     19      -1.1923      2.00000
     20      -1.1923      2.00000
     21      -1.1922      2.00000
     22      -1.1922      2.00000
     23      -1.1922      2.00000
     24      -1.1921      2.00000
     25      -1.1921      2.00000
     26      -1.1921      2.00000
     27      -1.1914      2.00000
     28      -1.1911      2.00000
     29      -1.1908      2.00000
     30      -1.1905      2.00000
     31      -1.1905      2.00000
     32      -1.1896      2.00000
     33      -0.7136      2.00000
     34      -0.7130      2.00000
     35      -0.7119      2.00000
     36      -0.7119      2.00000
     37      -0.7116      2.00000
     38      -0.7112      2.00000
     39      -0.7112      2.00000
     40      -0.7112      2.00000
     41      -0.7111      2.00000
     42      -0.7110      2.00000
     43      -0.7110      2.00000
     44      -0.7110      2.00000
     45      -0.7109      2.00000
     46      -0.7109      2.00000
     47      -0.7109      2.00000
     48      -0.7108      2.00000
     49      -0.7107      2.00000
     50      -0.7107      2.00000
     51      -0.7107      2.00000
     52      -0.7104      2.00000
     53      -0.7101      2.00000
     54      -0.7101      2.00000
     55      -0.7090      2.00000
     56      -0.7084      2.00000
     57      -0.2726      2.00000
     58      -0.2711      2.00000
     59      -0.2711      2.00000
     60      -0.2710      2.00000
[...]
    198       8.4329      0.00000
    199       8.4330      0.00000
    200       8.4332      0.00000
    201       8.4332      0.00000
    202       8.4333      0.00000
    203       8.4333      0.00000
    204       8.4334      0.00000
    205       8.4334      0.00000
    206       8.4335      0.00000
    207       8.4336      0.00000
    208       8.4338      0.00000
    209       8.4339      0.00000
    210       8.4343      0.00000
    211       8.4356      0.00000
    212       8.4362      0.00000

 soft charge-density along one line, spin component           1
         0         1         2         3         4         5         6         7         8         9
 total charge-density along one line

------------------------ aborting loop because EDIFF is reached ----------------------------------------

  FREE ENERGIE OF THE ION-ELECTRON SYSTEM (eV)
  free  energy   TOTEN  =      -115.952625 eV

  energy  without entropy=     -115.951652  energy(sigma->0) =     -115.952138

  FORCE on cell =-STRESS in cart. coord.  units (eV/reduce length):
  Direction    X        Y        Z        XY       YZ       ZX
  Alpha Z   2937.82   2937.82   2937.82
  Ewald   -11158.51 -11158.47 -11158.47      0.00     -0.00     -0.00
  Hartree   3600.00   3600.04   3600.04     -0.00     -0.00     -0.00
  E(xc)    -1996.54  -1996.54  -1996.54     -0.00      0.00     -0.00
  Local     3505.85   3505.77   3505.77     -0.00     -0.00     -0.00
  n-local  -1215.35  -1218.74  -1211.95      1.43      0.83      0.23
  augment   1801.10   1801.10   1801.10     -0.00     -0.00     -0.00
  Kinetic   2487.19   2483.47   2490.92      0.47     -0.92     -2.31
  Total      -38.44    -38.44    -38.44     -0.00      0.00      0.00
  in kB     -138.30   -138.30   -138.30     -0.00      0.00      0.00

 VOLUME and BASIS-vectors are now :
  energy-cutoff  :      750.00
  volume of cell :      445.33
      direct lattice vectors                 reciprocal lattice vectors
     7.636473205  0.000000000  0.000000000     0.130950502  0.000000000  0.000000000
     0.000000000  7.636473205  0.000000000     0.000000000  0.130950502  0.000000000
     0.000000000  0.000000000  7.636473205     0.000000000  0.000000000  0.130950502

  length of vectors
     7.636473205  7.636473205  7.636473205     0.130950502  0.130950502  0.130950502

 FORCES acting on ions
    electron-ion (+dipol)            ewald-force                    non-local-force                 convergence-correction
   0.510E+01 -.777E-13 0.100E-05   -.508E+01 0.391E-13 -.107E-13   -.533E-01 -.190E-19 -.257E-19   0.759E-05 0.279E-12 0.604E-12
   -.132E+01 -.436E-13 -.100E-05   0.134E+01 -.284E-13 -.227E-12   -.153E-01 0.252E-20 -.266E-21   -.437E-05 0.281E-12 0.589E-12
   0.421E+00 0.781E-12 -.300E-11   -.425E+00 -.604E-13 -.117E-12   0.351E-02 0.171E-20 -.131E-21   -.905E-05 -.164E-12 0.564E-12
   -.340E+00 -.487E-11 0.328E-12   0.333E+00 -.568E-13 -.171E-12   0.653E-02 -.144E-19 0.139E-20   0.958E-05 -.183E-12 0.529E-12
   0.421E+00 -.773E-13 0.343E-09   -.425E+00 -.533E-13 -.146E-12   0.351E-02 -.260E-20 0.209E-20   -.836E-05 0.264E-12 -.151E-12
   -.340E+00 -.599E-13 0.337E-09   0.333E+00 -.568E-13 -.142E-12   0.653E-02 -.170E-20 0.116E-19   0.947E-05 0.256E-12 -.180E-12
   0.177E+00 0.783E-12 0.135E-10   -.175E+00 -.284E-13 -.195E-12   -.148E-02 -.661E-21 0.336E-20   -.189E-04 -.147E-12 -.148E-12
   -.163E+00 -.467E-11 0.755E-11   0.164E+00 -.284E-13 -.256E-12   -.107E-02 -.285E-20 0.252E-20   0.201E-04 -.157E-12 -.172E-12
   -.649E+00 -.124E+01 -.303E-10   0.644E+00 0.124E+01 -.188E-12   0.842E-02 0.664E-02 -.734E-20   0.257E-05 -.107E-04 0.590E-12
   -.654E+00 0.123E+01 -.323E-10   0.648E+00 -.123E+01 -.188E-12   0.849E-02 -.667E-02 -.841E-20   -.470E-05 0.434E-05 0.554E-12
   -.649E+00 0.124E+01 -.305E-10   0.644E+00 -.124E+01 -.171E-12   0.842E-02 -.664E-02 0.541E-20   0.257E-05 0.107E-04 0.582E-12
   -.654E+00 -.123E+01 -.322E-10   0.648E+00 0.123E+01 -.114E-12   0.849E-02 0.667E-02 0.569E-20   -.470E-05 -.434E-05 0.553E-12
   -.174E-01 -.102E+00 0.752E-10   0.195E-01 0.102E+00 -.121E-12   -.187E-02 0.433E-03 -.261E-20   0.195E-05 -.609E-05 -.114E-12
   -.195E-01 0.102E+00 0.760E-10   0.217E-01 -.102E+00 -.121E-12   -.186E-02 -.451E-03 0.248E-20   -.264E-05 0.419E-05 -.129E-12
   -.174E-01 0.102E+00 0.753E-10   0.195E-01 -.102E+00 -.199E-12   -.187E-02 -.433E-03 -.446E-21   0.195E-05 0.609E-05 -.188E-12
   -.195E-01 -.102E+00 0.797E-10   0.217E-01 0.102E+00 -.199E-12   -.186E-02 0.451E-03 0.294E-20   -.264E-05 -.419E-05 -.236E-12
   -.649E+00 -.583E-13 -.124E+01   0.644E+00 -.391E-13 0.124E+01   0.842E-02 -.109E-20 0.664E-02   0.245E-05 0.251E-12 -.107E-04
   -.654E+00 -.688E-13 0.123E+01   0.648E+00 -.391E-13 -.123E+01   0.849E-02 -.461E-20 -.667E-02   -.481E-05 0.226E-12 0.426E-05
   -.174E-01 0.766E-12 -.102E+00   0.195E-01 -.639E-13 0.102E+00   -.187E-02 -.144E-20 0.433E-03   0.198E-05 -.166E-12 -.600E-05
   -.195E-01 -.204E-11 0.102E+00   0.217E-01 -.639E-13 -.102E+00   -.186E-02 0.226E-20 -.451E-03   -.261E-05 -.110E-12 0.410E-05
   -.649E+00 -.788E-13 0.124E+01   0.644E+00 -.568E-13 -.124E+01   0.842E-02 -.432E-20 -.664E-02   0.245E-05 0.280E-12 0.107E-04
   -.654E+00 -.586E-13 -.123E+01   0.648E+00 -.568E-13 0.123E+01   0.849E-02 0.315E-20 0.667E-02   -.481E-05 0.277E-12 -.426E-05
   -.174E-01 0.774E-12 0.102E+00   0.195E-01 -.284E-13 -.102E+00   -.187E-02 0.402E-20 -.433E-03   0.198E-05 -.196E-12 0.600E-05
   -.195E-01 0.212E-12 -.102E+00   0.217E-01 -.284E-13 0.102E+00   -.186E-02 0.110E-20 0.451E-03   -.261E-05 -.162E-12 -.410E-05
   0.799E+00 0.332E-02 0.332E-02   -.801E+00 -.330E-02 -.330E-02   0.204E-02 -.230E-04 -.230E-04   -.766E-05 -.139E-05 -.139E-05
   -.447E+00 -.963E-03 -.963E-03   0.450E+00 0.988E-03 0.988E-03   -.247E-02 -.192E-04 -.192E-04   0.895E-05 -.280E-05 -.280E-05
   0.799E+00 -.332E-02 0.332E-02   -.801E+00 0.330E-02 -.330E-02   0.204E-02 0.230E-04 -.230E-04   -.766E-05 0.139E-05 -.139E-05
   -.447E+00 0.963E-03 -.963E-03   0.450E+00 -.988E-03 0.988E-03   -.247E-02 0.192E-04 -.192E-04   0.895E-05 0.280E-05 -.280E-05
   0.799E+00 0.332E-02 -.332E-02   -.801E+00 -.330E-02 0.330E-02   0.204E-02 -.230E-04 0.230E-04   -.766E-05 -.139E-05 0.139E-05
   -.447E+00 -.963E-03 0.963E-03   0.450E+00 0.988E-03 -.988E-03   -.247E-02 -.192E-04 0.192E-04   0.895E-05 -.280E-05 0.280E-05
   0.799E+00 -.332E-02 -.332E-02   -.801E+00 0.330E-02 0.330E-02   0.204E-02 0.230E-04 0.230E-04   -.766E-05 0.139E-05 0.139E-05
   -.447E+00 0.963E-03 0.963E-03   0.450E+00 -.988E-03 -.988E-03   -.247E-02 0.192E-04 0.192E-04   0.895E-05 0.280E-05 0.280E-05
   -.227E-05 -.519E-10 -.258E-08   -.877E-13 0.288E-12 0.153E-12   0.102E-04 -.712E-19 0.359E-18   -.357E-06 0.524E-12 -.891E-12

 POSITION                                       TOTAL-FORCE (eV/Angst)
      0.01000      0.00000      0.00000        -0.031231      0.000000      0.000000
      3.81824      0.00000      0.00000         0.000839      0.000000     -0.000000
      0.00000      3.81824      0.00000        -0.000417     -0.000000     -0.000000
      3.81824      3.81824      0.00000        -0.000346      0.000000      0.000000
      0.00000      0.00000      3.81824        -0.000417     -0.000000     -0.000000
      3.81824      0.00000      3.81824        -0.000346      0.000000     -0.000000
      0.00000      3.81824      3.81824        -0.000134      0.000000     -0.000000
      3.81824      3.81824      3.81824         0.000019      0.000000     -0.000000
      1.90912      1.90912      0.00000         0.003467      0.003707      0.000000
      5.72735      1.90912      0.00000         0.003313     -0.003506      0.000000
      1.90912      5.72735      0.00000         0.003467     -0.003707      0.000000
      5.72735      5.72735      0.00000         0.003313      0.003506     -0.000000
      1.90912      1.90912      3.81824         0.000309      0.000026      0.000000
      5.72735      1.90912      3.81824         0.000310     -0.000023     -0.000000
      1.90912      5.72735      3.81824         0.000309     -0.000026      0.000000
      5.72735      5.72735      3.81824         0.000310      0.000023     -0.000000
      1.90912      0.00000      1.90912         0.003467     -0.000000      0.003707
      5.72735      0.00000      1.90912         0.003313      0.000000     -0.003506
      1.90912      3.81824      1.90912         0.000309     -0.000000      0.000026
      5.72735      3.81824      1.90912         0.000310     -0.000000     -0.000023
      1.90912      0.00000      5.72735         0.003467      0.000000     -0.003707
      5.72735      0.00000      5.72735         0.003313     -0.000000      0.003506
      1.90912      3.81824      5.72735         0.000309     -0.000000     -0.000026
      5.72735      3.81824      5.72735         0.000310     -0.000000      0.000023
      0.00000      1.90912      1.90912         0.000011     -0.000003     -0.000003
      3.81824      1.90912      1.90912         0.000598      0.000003      0.000003
      0.00000      5.72735      1.90912         0.000011      0.000003     -0.000003
      3.81824      5.72735      1.90912         0.000598     -0.000003      0.000003
      0.00000      1.90912      5.72735         0.000011     -0.000003      0.000003
      3.81824      1.90912      5.72735         0.000598      0.000003     -0.000003
      0.00000      5.72735      5.72735         0.000011      0.000003      0.000003
      3.81824      5.72735      5.72735         0.000598     -0.000003     -0.000003
    total drift:                                0.000008     -0.000000     -0.000000

 mean value of Nose-termostat <S>:     1.000 mean value of <T> :     0.000
 mean temperature <T/S>/<1/S>  :     0.000