 vasp.4.6.28 25Jul05 complex
 executed on             LinuxIFC date 2017.01.13  08:32:47

 INCAR:
 POTCAR:   PAW_PBE Au 06Sep2000
 POTCAR:   PAW_PBE Au 06Sep2000
   VRHFIN =Au: s1d10

   TITEL  = PAW_PBE Au 06Sep2000
   POMASS =  196.966; ZVAL   =   11.000    mass and valenz
   ENMAX  =  229.948; ENMIN  =  172.461 eV
   QCUT   =   -4.111; QGAM   =    8.222    optimization parameters

   Description
     l     E      TYP  RCUT    TYP  RCUT
     2   .000     23  2.500
     2   .000     23  2.500
     0   .000     23  2.500
     0   .000     23  2.500
     1  -.200     23  2.500
     1   .000     23  2.500
     3   .000      7   .000

 PAW_PBE Au 06Sep2000                   :

 POSCAR: Au
  positions in direct lattice

 ion  position               nearest neighbor table
   1  0.001  0.000  0.000-   9 3.03  11 3.03  17 3.03  21 3.03  25 3.04  27 3.04  29 3.04  31 3.04
                            10 3.05  18 3.05  12 3.05  22 3.05
   2  0.500  0.000  0.000-   9 3.04  10 3.04  11 3.04  12 3.04  17 3.04  18 3.04  21 3.04  22 3.04
                            26 3.04  28 3.04  30 3.04  32 3.04
   3  0.000  0.500  0.000-   9 3.04  10 3.04  11 3.04  12 3.04  19 3.04  20 3.04  23 3.04  24 3.04
                            25 3.04  27 3.04  29 3.04  31 3.04
   4  0.500  0.500  0.000-   9 3.04  10 3.04  11 3.04  12 3.04  19 3.04  20 3.04  23 3.04  24 3.04
                            26 3.04  28 3.04  30 3.04  32 3.04
   5  0.000  0.000  0.500-  13 3.04  14 3.04  15 3.04  16 3.04  17 3.04  18 3.04  21 3.04  22 3.04
                            25 3.04  27 3.04  29 3.04  31 3.04
   6  0.500  0.000  0.500-  13 3.04  14 3.04  15 3.04  16 3.04  17 3.04  18 3.04  21 3.04  22 3.04
                            26 3.04  28 3.04  30 3.04  32 3.04
   7  0.000  0.500  0.500-  13 3.04  14 3.04  15 3.04  16 3.04  19 3.04  20 3.04  23 3.04  24 3.04
                            25 3.04  27 3.04  29 3.04  31 3.04
   8  0.500  0.500  0.500-  13 3.04  14 3.04  15 3.04  16 3.04  19 3.04  20 3.04  23 3.04  24 3.04
                            26 3.04  28 3.04  30 3.04  32 3.04
   9  0.250  0.250  0.000-   1 3.03   2 3.04   3 3.04   4 3.04  17 3.04  19 3.04  21 3.04  23 3.04
                            25 3.04  26 3.04  29 3.04  30 3.04
  10  0.750  0.250  0.000-   2 3.04   3 3.04   4 3.04  18 3.04  20 3.04  22 3.04  24 3.04  25 3.04
                            26 3.04  29 3.04  30 3.04   1 3.05
  11  0.250  0.750  0.000-   1 3.03   2 3.04   3 3.04   4 3.04  17 3.04  19 3.04  21 3.04  23 3.04
                            27 3.04  28 3.04  31 3.04  32 3.04
  12  0.750  0.750  0.000-   2 3.04   3 3.04   4 3.04  18 3.04  20 3.04  22 3.04  24 3.04  27 3.04
                            28 3.04  31 3.04  32 3.04   1 3.05
  13  0.250  0.250  0.500-   5 3.04   6 3.04   7 3.04   8 3.04  17 3.04  19 3.04  21 3.04  23 3.04
                            25 3.04  26 3.04  29 3.04  30 3.04
  14  0.750  0.250  0.500-   5 3.04   6 3.04   7 3.04   8 3.04  18 3.04  20 3.04  22 3.04  24 3.04
                            25 3.04  26 3.04  29 3.04  30 3.04
  15  0.250  0.750  0.500-   5 3.04   6 3.04   7 3.04   8 3.04  17 3.04  19 3.04  21 3.04  23 3.04
                            27 3.04  28 3.04  31 3.04  32 3.04
  16  0.750  0.750  0.500-   5 3.04   6 3.04   7 3.04   8 3.04  18 3.04  20 3.04  22 3.04  24 3.04
                            27 3.04  28 3.04  31 3.04  32 3.04
  17  0.250  0.000  0.250-   1 3.03   2 3.04   5 3.04   6 3.04   9 3.04  11 3.04  13 3.04  15 3.04
                            25 3.04  26 3.04  27 3.04  28 3.04
  18  0.750  0.000  0.250-   2 3.04   5 3.04   6 3.04  10 3.04  12 3.04  14 3.04  16 3.04  25 3.04
                            26 3.04  27 3.04  28 3.04   1 3.05
  19  0.250  0.500  0.250-   3 3.04   4 3.04   7 3.04   8 3.04   9 3.04  11 3.04  13 3.04  15 3.04
                            25 3.04  26 3.04  27 3.04  28 3.04
  20  0.750  0.500  0.250-   3 3.04   4 3.04   7 3.04   8 3.04  10 3.04  12 3.04  14 3.04  16 3.04
                            25 3.04  26 3.04  27 3.04  28 3.04
  21  0.250  0.000  0.750-   1 3.03   2 3.04   5 3.04   6 3.04   9 3.04  11 3.04  13 3.04  15 3.04
                            29 3.04  30 3.04  31 3.04  32 3.04
  22  0.750  0.000  0.750-   2 3.04   5 3.04   6 3.04  10 3.04  12 3.04  14 3.04  16 3.04  29 3.04
                            30 3.04  31 3.04  32 3.04   1 3.05
  23  0.250  0.500  0.750-   3 3.04   4 3.04   7 3.04   8 3.04   9 3.04  11 3.04  13 3.04  15 3.04
                            29 3.04  30 3.04  31 3.04  32 3.04
  24  0.750  0.500  0.750-   3 3.04   4 3.04   7 3.04   8 3.04  10 3.04  12 3.04  14 3.04  16 3.04
                            29 3.04  30 3.04  31 3.04  32 3.04
  25  0.000  0.250  0.250-   3 3.04   5 3.04   7 3.04   9 3.04  10 3.04  13 3.04  14 3.04  17 3.04
                            18 3.04  19 3.04  20 3.04   1 3.04
  26  0.500  0.250  0.250-   2 3.04   4 3.04   6 3.04   8 3.04   9 3.04  10 3.04  13 3.04  14 3.04
                            17 3.04  18 3.04  19 3.04  20 3.04
  27  0.000  0.750  0.250-   3 3.04   5 3.04   7 3.04  11 3.04  12 3.04  15 3.04  16 3.04  17 3.04
                            18 3.04  19 3.04  20 3.04   1 3.04
  28  0.500  0.750  0.250-   2 3.04   4 3.04   6 3.04   8 3.04  11 3.04  12 3.04  15 3.04  16 3.04
                            17 3.04  18 3.04  19 3.04  20 3.04
  29  0.000  0.250  0.750-   3 3.04   5 3.04   7 3.04   9 3.04  10 3.04  13 3.04  14 3.04  21 3.04
                            22 3.04  23 3.04  24 3.04   1 3.04
  30  0.500  0.250  0.750-   2 3.04   4 3.04   6 3.04   8 3.04   9 3.04  10 3.04  13 3.04  14 3.04
                            21 3.04  22 3.04  23 3.04  24 3.04
  31  0.000  0.750  0.750-   3 3.04   5 3.04   7 3.04  11 3.04  12 3.04  15 3.04  16 3.04  21 3.04
                            22 3.04  23 3.04  24 3.04   1 3.04
  32  0.500  0.750  0.750-   2 3.04   4 3.04   6 3.04   8 3.04  11 3.04  12 3.04  15 3.04  16 3.04
                            21 3.04  22 3.04  23 3.04  24 3.04

  LATTYP: Found a simple cubic cell.
 ALAT       =     8.5960749188

  Lattice vectors:

 A1 = (   8.5960749188,   0.0000000000,   0.0000000000)
 A2 = (   0.0000000000,   8.5960749188,   0.0000000000)
 A3 = (   0.0000000000,   0.0000000000,   8.5960749188)
 Subroutine PRICEL returns:
 Original cell was already a primitive cell.

Analysis of symmetry for initial positions (statically):

 Routine SETGRP: Setting up the symmetry group for a
 simple cubic supercell.

 Subroutine GETGRP returns: Found  8 space group operations
 (whereof  8 operations were pure point group operations)
 out of a pool of 48 trial point group operations.

The static configuration has the point symmetry C_4v.

Analysis of symmetry for dynamics (positions and initial velocities):

 Subroutine DYNSYM returns: Found  8 space group operations
 (whereof  8 operations were pure point group operations)
 out of a pool of  8 trial space group operations
 (whereof  8 operations were pure point group operations)
 and found also     1 'primitive' translations

The dynamic configuration has the point symmetry C_4v.

 KPOINTS: Automatic mesh

Automatic generation of k-mesh.

 Subroutine IBZKPT returns following result:

 Found    196 irreducible k-points:

 Following reciprocal coordinates:
            Coordinates               Weight
  0.000000  0.000000  0.000000      1.000000
  0.083333  0.000000  0.000000      2.000000
  0.166667  0.000000  0.000000      2.000000
  0.250000  0.000000  0.000000      2.000000
  0.333333  0.000000  0.000000      2.000000
  0.416667  0.000000  0.000000      2.000000
  0.500000  0.000000  0.000000      1.000000
  0.000000  0.083333  0.000000      4.000000
  0.083333  0.083333  0.000000      8.000000
  0.166667  0.083333  0.000000      8.000000
  0.250000  0.083333  0.000000      8.000000
  0.333333  0.083333  0.000000      8.000000
  0.416667  0.083333  0.000000      8.000000
  0.500000  0.083333  0.000000      4.000000
  0.000000  0.166667  0.000000      4.000000
  0.083333  0.166667  0.000000      8.000000
  0.166667  0.166667  0.000000      8.000000
  0.250000  0.166667  0.000000      8.000000
  0.333333  0.166667  0.000000      8.000000
  0.416667  0.166667  0.000000      8.000000
  0.500000  0.166667  0.000000      4.000000
  0.000000  0.250000  0.000000      4.000000
  0.083333  0.250000  0.000000      8.000000
  0.166667  0.250000  0.000000      8.000000
  0.250000  0.250000  0.000000      8.000000
  0.333333  0.250000  0.000000      8.000000
  0.416667  0.250000  0.000000      8.000000
  0.500000  0.250000  0.000000      4.000000
  0.000000  0.333333  0.000000      4.000000
  0.083333  0.333333  0.000000      8.000000
  0.166667  0.333333  0.000000      8.000000
  0.250000  0.333333  0.000000      8.000000
  0.333333  0.333333  0.000000      8.000000
  0.416667  0.333333  0.000000      8.000000
  0.500000  0.333333  0.000000      4.000000
  0.000000  0.416667  0.000000      4.000000
  0.083333  0.416667  0.000000      8.000000
  0.166667  0.416667  0.000000      8.000000
  0.250000  0.416667  0.000000      8.000000
  0.333333  0.416667  0.000000      8.000000
  0.416667  0.416667  0.000000      8.000000
  0.500000  0.416667  0.000000      4.000000
  0.000000  0.500000  0.000000      2.000000
  0.083333  0.500000  0.000000      4.000000
  0.166667  0.500000  0.000000      4.000000
  0.250000  0.500000  0.000000      4.000000
  0.333333  0.500000  0.000000      4.000000
  0.416667  0.500000  0.000000      4.000000
  0.500000  0.500000  0.000000      2.000000
  0.000000  0.083333  0.083333      4.000000
  0.083333  0.083333  0.083333      8.000000
  0.166667  0.083333  0.083333      8.000000
  0.250000  0.083333  0.083333      8.000000
  0.333333  0.083333  0.083333      8.000000
  0.416667  0.083333  0.083333      8.000000
  0.500000  0.083333  0.083333      4.000000
  0.000000  0.166667  0.083333      8.000000
  0.083333  0.166667  0.083333     16.000000
  0.166667  0.166667  0.083333     16.000000
  0.250000  0.166667  0.083333     16.000000
[...]
  0.500000  0.416667  0.416667      4.000000
  0.000000  0.500000  0.416667      4.000000
  0.083333  0.500000  0.416667      8.000000
  0.166667  0.500000  0.416667      8.000000
  0.250000  0.500000  0.416667      8.000000
  0.333333  0.500000  0.416667      8.000000
  0.416667  0.500000  0.416667      8.000000
  0.500000  0.500000  0.416667      4.000000
  0.000000  0.500000  0.500000      1.000000
  0.083333  0.500000  0.500000      2.000000
  0.166667  0.500000  0.500000      2.000000
  0.250000  0.500000  0.500000      2.000000
  0.333333  0.500000  0.500000      2.000000
  0.416667  0.500000  0.500000      2.000000
  0.500000  0.500000  0.500000      1.000000

 Following cartesian coordinates:
            Coordinates               Weight
  0.000000  0.000000  0.000000      1.000000
  0.009694  0.000000  0.000000      2.000000
  0.019389  0.000000  0.000000      2.000000
  0.029083  0.000000  0.000000      2.000000
  0.038777  0.000000  0.000000      2.000000
  0.048472  0.000000  0.000000      2.000000
  0.058166  0.000000  0.000000      1.000000
  0.000000  0.009694  0.000000      4.000000
  0.009694  0.009694  0.000000      8.000000
  0.019389  0.009694  0.000000      8.000000
[...]
 number of electron  352.0000007 magnetization
 augmentation part   129.9930319 magnetization

[...]

 eigenvalue-minimisations  : 46288
 total energy-change (2. order) :-0.4886897E-07  ( 0.1521402E-11)
 number of electron  352.0000007 magnetization
 augmentation part   129.9930226 magnetization

 Broyden mixing:
  rms(total) = 0.24005E-05    rms(broyden)= 0.23970E-05
  rms(prec ) = 0.28786E-05
  weight for this iteration     100.00

 eigenvalues of (default mixing * dielectric matrix)
  average eigenvalue GAMMA=   1.5558
  2.9400  2.7065  2.5412  2.4816  1.1106  1.1106  0.9988  0.9988  0.8287  0.7743
  0.6227

[...]

----------------------------------------- Iteration    1(  17)  ---------------------------------------

 eigenvalue-minimisations  : 46360
 total energy-change (2. order) :-0.5271431E-08  ( 0.3890142E-10)
 number of electron  352.0000007 magnetization
 augmentation part   129.9930226 magnetization

 Free energy of the ion-electron system (eV)
  alpha Z        PSCENC =      3019.22523168
  Ewald energy   TEWEN  =    -29738.37930113
  -1/2 Hartree   DENC   =     -4273.15223068
  -V(xc)+E(xc)   XCENC  =       460.46287757
  PAW double counting   =     23652.64475043   -22967.71844399
  entropy T*S    EENTRO =        -0.00080156
  eigenvalues    EBANDS =       110.15139448
  atomic energy  EATOM  =     29633.78979189
  free energy    TOTEN  =      -102.97673130 eV

  energy without entropy =     -102.97592974  energy(sigma->0) =     -102.97633052

 average (electrostatic) potential at core
  the test charge radii are     1.2098
  (the norm of the test charge is              1.0000)
       1 -46.8706       2 -46.8705       3 -46.8705       4 -46.8705       5 -46.8705
       6 -46.8705       7 -46.8705       8 -46.8705       9 -46.8718      10 -46.8693
      11 -46.8718      12 -46.8693      13 -46.8705      14 -46.8705      15 -46.8705
      16 -46.8705      17 -46.8718      18 -46.8693      19 -46.8705      20 -46.8705
      21 -46.8718      22 -46.8693      23 -46.8705      24 -46.8705      25 -46.8705
      26 -46.8705      27 -46.8705      28 -46.8705      29 -46.8705      30 -46.8705
      31 -46.8705      32 -46.8705

 E-fermi :   3.9278     XC(G=0): -11.8222     alpha+bet : -8.7429
   add alpha+bet to get absolut eigen values

 k-point   1 :       0.0000    0.0000    0.0000
  band No.  band energies     occupation
      1      -4.4071      2.00000
      2      -2.2632      2.00000
      3      -2.2602      2.00000
      4      -2.2602      2.00000
      5      -2.2602      2.00000
      6      -2.2601      2.00000
      7      -2.2571      2.00000
      8      -2.1323      2.00000
      9      -2.1323      2.00000
     10      -2.1323      2.00000
     11      -2.1323      2.00000
     12      -1.8814      2.00000
     13      -1.8814      2.00000
     14      -1.8814      2.00000
     15      -1.6488      2.00000
     16      -1.6488      2.00000
     17      -1.6488      2.00000
     18      -1.1265      2.00000
     19      -1.1251      2.00000
     20      -1.1251      2.00000
     21      -1.1235      2.00000
     22      -1.1233      2.00000
     23      -1.1233      2.00000
     24      -1.1233      2.00000
     25      -1.1233      2.00000
     26      -1.1231      2.00000
     27      -1.1216      2.00000
     28      -1.1216      2.00000
     29      -1.1202      2.00000
     30      -0.9899      2.00000
     31      -0.9881      2.00000
     32      -0.9881      2.00000
     33      -0.9881      2.00000
     34      -0.9881      2.00000
     35      -0.9862      2.00000
     36      -0.9130      2.00000
     37      -0.9111      2.00000
     38      -0.9111      2.00000
     39      -0.9111      2.00000
     40      -0.9111      2.00000
     41      -0.9093      2.00000
     42      -0.4377      2.00000
     43      -0.4354      2.00000
     44      -0.4354      2.00000
     45      -0.4343      2.00000
     46      -0.4343      2.00000
     47      -0.4343      2.00000
     48      -0.4343      2.00000
     49      -0.4343      2.00000
     50      -0.4343      2.00000
     51      -0.4333      2.00000
     52      -0.4333      2.00000
     53      -0.4311      2.00000
     54      -0.3782      2.00000
     55      -0.3782      2.00000
     56      -0.3762      2.00000
     57      -0.3762      2.00000
     58      -0.3762      2.00000
     59      -0.3762      2.00000
     60      -0.3762      2.00000
[...]
    202       9.7914      0.00000
    203       9.7914      0.00000
    204       9.7918      0.00000
    205       9.7918      0.00000
    206       9.7919      0.00000
    207       9.7919      0.00000
    208       9.7922      0.00000
    209       9.7922      0.00000
    210       9.7952      0.00000
    211       9.7952      0.00000
    212      11.7160      0.00000
    213      11.7166      0.00000
    214      11.7172      0.00000
    215      11.7178      0.00000
    216      11.7183      0.00000

[...]

 k-point 196 :       0.5000    0.5000    0.5000
  band No.  band energies     occupation
      1      -2.8204      2.00000
      2      -2.8173      2.00000
      3      -2.8173      2.00000
      4      -2.8168      2.00000
      5      -2.8165      2.00000
      6      -2.8161      2.00000
      7      -2.8161      2.00000
      8      -2.8130      2.00000
      9      -1.4142      2.00000
     10      -1.4142      2.00000
     11      -1.4142      2.00000
     12      -1.4140      2.00000
     13      -1.4137      2.00000
     14      -1.4128      2.00000
     15      -1.4121      2.00000
     16      -1.4121      2.00000
     17      -1.4121      2.00000
     18      -1.4120      2.00000
     19      -1.4120      2.00000
     20      -1.4119      2.00000
     21      -1.4119      2.00000
     22      -1.4118      2.00000
     23      -1.4118      2.00000
     24      -1.4117      2.00000
     25      -1.4117      2.00000
     26      -1.4117      2.00000
     27      -1.4110      2.00000
     28      -1.4101      2.00000
     29      -1.4098      2.00000
     30      -1.4097      2.00000
     31      -1.4097      2.00000
     32      -1.4096      2.00000
     33      -0.6687      2.00000
     34      -0.6655      2.00000
     35      -0.6653      2.00000
     36      -0.6650      2.00000
     37      -0.6650      2.00000
     38      -0.6645      2.00000
     39      -0.6641      2.00000
     40      -0.6641      2.00000
     41      -0.6640      2.00000
     42      -0.6639      2.00000
     43      -0.6639      2.00000
     44      -0.6639      2.00000
     45      -0.6638      2.00000
     46      -0.6638      2.00000
     47      -0.6638      2.00000
     48      -0.6637      2.00000
     49      -0.6636      2.00000
     50      -0.6636      2.00000
     51      -0.6632      2.00000
     52      -0.6627      2.00000
     53      -0.6627      2.00000
     54      -0.6625      2.00000
     55      -0.6623      2.00000
     56      -0.6591      2.00000
     57      -0.1064      2.00000
     58      -0.1050      2.00000
     59      -0.1044      2.00000
     60      -0.1044      2.00000
[...]
    202       8.9038      0.00000
    203       8.9038      0.00000
    204       8.9039      0.00000
    205       8.9039      0.00000
    206       8.9039      0.00000
    207       8.9040      0.00000
    208       8.9040      0.00000
    209       8.9041      0.00000
    210       8.9045      0.00000
    211       8.9045      0.00000
    212       8.9049      0.00000
    213       8.9056      0.00000
    214       8.9061      0.00000
    215       8.9087      0.00000
    216       8.9087      0.00000

 soft charge-density along one line, spin component           1
         0         1         2         3         4         5         6         7         8         9
 total charge-density along one line

------------------------ aborting loop because EDIFF is reached ----------------------------------------

  FREE ENERGIE OF THE ION-ELECTRON SYSTEM (eV)
  free  energy   TOTEN  =      -102.976731 eV

  energy  without entropy=     -102.975930  energy(sigma->0) =     -102.976331

  FORCE on cell =-STRESS in cart. coord.  units (eV/reduce length):
  Direction    X        Y        Z        XY       YZ       ZX
  Alpha Z   3019.23   3019.23   3019.23
  Ewald    -9912.86  -9912.82  -9912.82      0.00      0.00      0.00
  Hartree   1424.37   1424.39   1424.39     -0.00     -0.00     -0.00
  E(xc)    -1578.31  -1578.31  -1578.31      0.00     -0.00     -0.00
  Local     2408.98   2408.93   2408.93     -0.00      0.00     -0.00
  n-local  -1657.98  -1663.95  -1652.01      3.31      2.63      1.95
  augment   1376.66   1376.66   1376.66     -0.00     -0.00     -0.00
  Kinetic   4883.42   4877.55   4889.29      0.37     -0.59     -1.56
  Total      -36.50    -36.50    -36.50      0.00      0.00      0.00
  in kB      -92.05    -92.05    -92.05      0.00      0.00      0.00

 VOLUME and BASIS-vectors are now :
  energy-cutoff  :      750.00
  volume of cell :      635.19
      direct lattice vectors                 reciprocal lattice vectors
     8.596074919  0.000000000  0.000000000     0.116332164  0.000000000  0.000000000
     0.000000000  8.596074919  0.000000000     0.000000000  0.116332164  0.000000000
     0.000000000  0.000000000  8.596074919     0.000000000  0.000000000  0.116332164

  length of vectors
     8.596074919  8.596074919  8.596074919     0.116332164  0.116332164  0.116332164

 FORCES acting on ions
    electron-ion (+dipol)            ewald-force                    non-local-force                 convergence-correction
   0.357E+01 0.339E-13 0.160E-07   -.356E+01 0.120E-13 -.200E-13   -.364E-01 0.542E-19 0.000E+00   -.299E-04 0.808E-13 -.105E-12
   -.930E+00 0.716E-13 -.161E-07   0.940E+00 0.604E-13 0.355E-14   -.613E-02 0.000E+00 0.000E+00   -.224E-05 0.752E-13 -.177E-12
   0.296E+00 -.315E-14 -.102E-11   -.298E+00 0.711E-13 -.355E-14   0.797E-03 -.678E-20 0.000E+00   -.259E-05 -.189E-12 -.640E-13
   -.239E+00 0.127E-11 -.121E-11   0.234E+00 0.391E-13 -.533E-13   0.354E-02 -.136E-19 0.339E-20   0.425E-05 -.178E-12 -.911E-13
   0.296E+00 0.344E-13 0.160E-10   -.298E+00 0.568E-13 -.568E-13   0.797E-03 -.678E-20 0.136E-19   -.226E-05 0.784E-13 0.680E-14
   -.239E+00 0.192E-13 0.171E-10   0.234E+00 0.604E-13 0.533E-13   0.354E-02 0.339E-20 0.136E-19   0.417E-05 0.749E-13 0.500E-13
   0.124E+00 -.320E-14 -.446E-11   -.123E+00 -.355E-14 0.000E+00   -.131E-02 0.678E-20 -.136E-19   -.200E-05 -.189E-12 -.464E-13
   -.115E+00 -.476E-11 -.314E-11   0.115E+00 -.355E-14 0.533E-13   -.385E-03 0.203E-19 -.678E-20   0.392E-06 -.177E-12 -.273E-13
   -.452E+00 -.865E+00 -.206E-11   0.452E+00 0.868E+00 0.320E-13   0.405E-02 0.189E-02 0.136E-19   0.409E-05 0.381E-05 -.137E-12
   -.455E+00 0.858E+00 -.852E-11   0.454E+00 -.861E+00 -.107E-13   0.396E-02 -.180E-02 0.000E+00   0.426E-05 -.306E-05 -.903E-13
   -.452E+00 0.865E+00 -.215E-11   0.452E+00 -.868E+00 -.107E-13   0.405E-02 -.189E-02 0.000E+00   0.409E-05 -.381E-05 -.114E-12
   -.455E+00 -.858E+00 0.375E-11   0.454E+00 0.861E+00 -.675E-13   0.396E-02 0.180E-02 0.000E+00   0.426E-05 0.306E-05 -.781E-13
   -.130E-01 -.715E-01 0.614E-11   0.138E-01 0.713E-01 -.639E-13   -.524E-03 0.112E-03 0.000E+00   -.759E-06 0.204E-05 0.228E-13
   -.143E-01 0.713E-01 0.720E-11   0.151E-01 -.712E-01 0.355E-13   -.528E-03 -.993E-04 0.000E+00   -.103E-05 -.124E-06 -.330E-14
   -.130E-01 0.715E-01 0.623E-11   0.138E-01 -.713E-01 0.391E-13   -.524E-03 -.112E-03 0.169E-20   -.759E-06 -.204E-05 -.447E-14
   -.143E-01 -.713E-01 -.520E-11   0.151E-01 0.712E-01 0.959E-13   -.528E-03 0.993E-04 -.172E-21   -.103E-05 0.124E-06 -.176E-13
   -.452E+00 0.201E-13 -.865E+00   0.452E+00 0.209E-13 0.868E+00   0.405E-02 0.000E+00 0.189E-02   0.402E-05 0.553E-13 0.387E-05
   -.455E+00 0.268E-13 0.858E+00   0.454E+00 0.209E-13 -.861E+00   0.396E-02 -.169E-20 -.180E-02   0.419E-05 0.716E-13 -.313E-05
   -.130E-01 0.689E-12 -.715E-01   0.138E-01 0.360E-13 0.713E-01   -.524E-03 0.000E+00 0.112E-03   -.739E-06 -.172E-12 0.210E-05
   -.143E-01 0.760E-11 0.713E-01   0.151E-01 -.209E-13 -.712E-01   -.528E-03 -.847E-21 -.993E-04   -.101E-05 -.183E-12 -.189E-06
   -.452E+00 0.478E-13 0.865E+00   0.452E+00 0.462E-13 -.868E+00   0.405E-02 -.847E-20 -.189E-02   0.402E-05 0.808E-13 -.387E-05
   -.455E+00 0.365E-13 -.858E+00   0.454E+00 0.462E-13 0.861E+00   0.396E-02 -.339E-20 0.180E-02   0.419E-05 0.845E-13 0.313E-05
   -.130E-01 0.809E-12 0.715E-01   0.138E-01 0.107E-13 -.713E-01   -.524E-03 -.424E-21 -.112E-03   -.739E-06 -.197E-12 -.210E-05
   -.143E-01 -.494E-11 -.713E-01   0.151E-01 0.107E-13 0.712E-01   -.528E-03 0.169E-20 0.993E-04   -.101E-05 -.195E-12 0.189E-06
   0.557E+00 0.204E-02 0.204E-02   -.562E+00 -.205E-02 -.205E-02   0.263E-02 0.864E-05 0.864E-05   -.988E-06 0.870E-06 0.870E-06
   -.314E+00 -.608E-03 -.608E-03   0.316E+00 0.615E-03 0.615E-03   -.717E-03 -.744E-05 -.744E-05   0.200E-05 0.105E-05 0.105E-05
   0.557E+00 -.204E-02 0.204E-02   -.562E+00 0.205E-02 -.205E-02   0.263E-02 -.864E-05 0.864E-05   -.988E-06 -.870E-06 0.870E-06
   -.314E+00 0.608E-03 -.608E-03   0.316E+00 -.615E-03 0.615E-03   -.717E-03 0.744E-05 -.744E-05   0.200E-05 -.105E-05 0.105E-05
   0.557E+00 0.204E-02 -.204E-02   -.562E+00 -.205E-02 0.205E-02   0.263E-02 0.864E-05 -.864E-05   -.988E-06 0.870E-06 -.870E-06
   -.314E+00 -.608E-03 0.608E-03   0.316E+00 0.615E-03 -.615E-03   -.717E-03 -.744E-05 0.744E-05   0.200E-05 0.105E-05 -.105E-05
   0.557E+00 -.204E-02 -.204E-02   -.562E+00 0.205E-02 0.205E-02   0.263E-02 -.864E-05 -.864E-05   -.988E-06 -.870E-06 -.870E-06
   -.314E+00 0.608E-03 0.608E-03   0.316E+00 -.615E-03 -.615E-03   -.717E-03 0.744E-05 0.744E-05   0.200E-05 -.105E-05 -.105E-05
   -.227E-05 0.370E-11 -.512E-10   0.888E-14 0.914E-13 -.133E-12   0.400E-05 0.202E-18 -.728E-19   -.531E-07 -.437E-12 -.423E-12

 POSITION                                       TOTAL-FORCE (eV/Angst)
      0.01000      0.00000      0.00000        -0.025739      0.000000     -0.000000
      4.29804      0.00000      0.00000         0.003843      0.000000      0.000000
      0.00000      4.29804      0.00000        -0.000550      0.000000     -0.000000
      4.29804      4.29804      0.00000        -0.002037      0.000000      0.000000
      0.00000      0.00000      4.29804        -0.000550      0.000000     -0.000000
      4.29804      0.00000      4.29804        -0.002037     -0.000000      0.000000
      0.00000      4.29804      4.29804         0.000209      0.000000      0.000000
      4.29804      4.29804      4.29804        -0.000139     -0.000000      0.000000
      2.14902      2.14902      0.00000         0.003984      0.005243     -0.000000
      6.44706      2.14902      0.00000         0.003807     -0.005002     -0.000000
      2.14902      6.44706      0.00000         0.003984     -0.005243     -0.000000
      6.44706      6.44706      0.00000         0.003807      0.005002     -0.000000
      2.14902      2.14902      4.29804         0.000248     -0.000006      0.000000
      6.44706      2.14902      4.29804         0.000250      0.000000      0.000000
      2.14902      6.44706      4.29804         0.000248      0.000006     -0.000000
      6.44706      6.44706      4.29804         0.000250     -0.000000      0.000000
      2.14902      0.00000      2.14902         0.003984      0.000000      0.005243
      6.44706      0.00000      2.14902         0.003807      0.000000     -0.005002
      2.14902      4.29804      2.14902         0.000248      0.000000     -0.000006
      6.44706      4.29804      2.14902         0.000250      0.000000      0.000000
      2.14902      0.00000      6.44706         0.003984      0.000000     -0.005243
      6.44706      0.00000      6.44706         0.003807      0.000000      0.005002
      2.14902      4.29804      6.44706         0.000248      0.000000      0.000006
      6.44706      4.29804      6.44706         0.000250      0.000000     -0.000000
      0.00000      2.14902      2.14902        -0.002316      0.000000      0.000000
      4.29804      2.14902      2.14902         0.000778      0.000001      0.000001
      0.00000      6.44706      2.14902        -0.002316     -0.000000      0.000000
      4.29804      6.44706      2.14902         0.000778     -0.000001      0.000001
      0.00000      2.14902      6.44706        -0.002316      0.000000     -0.000000
      4.29804      2.14902      6.44706         0.000778      0.000001     -0.000001
      0.00000      6.44706      6.44706        -0.002316     -0.000000     -0.000000
      4.29804      6.44706      6.44706         0.000778     -0.000001     -0.000001
    total drift:                                0.000002      0.000000     -0.000000

 mean value of Nose-termostat <S>:     1.000 mean value of <T> :     0.000
 mean temperature <T/S>/<1/S>  :     0.000