 vasp.4.6.28 25Jul05 complex
 executed on             LinuxIFC date 2017.01.14  12:20:19

 INCAR:
 POTCAR:   PAW_PBE Au 06Sep2000
 POTCAR:   PAW_PBE Au 06Sep2000
   VRHFIN =Au: s1d10

   TITEL  = PAW_PBE Au 06Sep2000
   POMASS =  196.966; ZVAL   =   11.000    mass and valenz
   ENMAX  =  229.948; ENMIN  =  172.461 eV
   QCUT   =   -4.111; QGAM   =    8.222    optimization parameters

   Description
     l     E      TYP  RCUT    TYP  RCUT
     2   .000     23  2.500
     2   .000     23  2.500
     0   .000     23  2.500
     0   .000     23  2.500
     1  -.200     23  2.500
     1   .000     23  2.500
     3   .000      7   .000

 PAW_PBE Au 06Sep2000                   :

 POSCAR: Au
  positions in direct lattice

 ion  position               nearest neighbor table
   1  0.001  0.000  0.000-   9 3.21  11 3.21  17 3.21  21 3.21  25 3.22  27 3.22  29 3.22  31 3.22
                            10 3.22  18 3.22  12 3.22  22 3.22
   2  0.500  0.000  0.000-   9 3.22  10 3.22  11 3.22  12 3.22  17 3.22  18 3.22  21 3.22  22 3.22
                            26 3.22  28 3.22  30 3.22  32 3.22
   3  0.000  0.500  0.000-   9 3.22  10 3.22  11 3.22  12 3.22  19 3.22  20 3.22  23 3.22  24 3.22
                            25 3.22  27 3.22  29 3.22  31 3.22
   4  0.500  0.500  0.000-   9 3.22  10 3.22  11 3.22  12 3.22  19 3.22  20 3.22  23 3.22  24 3.22
                            26 3.22  28 3.22  30 3.22  32 3.22
   5  0.000  0.000  0.500-  13 3.22  14 3.22  15 3.22  16 3.22  17 3.22  18 3.22  21 3.22  22 3.22
                            25 3.22  27 3.22  29 3.22  31 3.22
   6  0.500  0.000  0.500-  13 3.22  14 3.22  15 3.22  16 3.22  17 3.22  18 3.22  21 3.22  22 3.22
                            26 3.22  28 3.22  30 3.22  32 3.22
   7  0.000  0.500  0.500-  13 3.22  14 3.22  15 3.22  16 3.22  19 3.22  20 3.22  23 3.22  24 3.22
                            25 3.22  27 3.22  29 3.22  31 3.22
   8  0.500  0.500  0.500-  13 3.22  14 3.22  15 3.22  16 3.22  19 3.22  20 3.22  23 3.22  24 3.22
                            26 3.22  28 3.22  30 3.22  32 3.22
   9  0.250  0.250  0.000-   1 3.21   2 3.22   3 3.22   4 3.22  17 3.22  19 3.22  21 3.22  23 3.22
                            25 3.22  26 3.22  29 3.22  30 3.22
  10  0.750  0.250  0.000-   2 3.22   3 3.22   4 3.22  18 3.22  20 3.22  22 3.22  24 3.22  25 3.22
                            26 3.22  29 3.22  30 3.22   1 3.22
  11  0.250  0.750  0.000-   1 3.21   2 3.22   3 3.22   4 3.22  17 3.22  19 3.22  21 3.22  23 3.22
                            27 3.22  28 3.22  31 3.22  32 3.22
  12  0.750  0.750  0.000-   2 3.22   3 3.22   4 3.22  18 3.22  20 3.22  22 3.22  24 3.22  27 3.22
                            28 3.22  31 3.22  32 3.22   1 3.22
  13  0.250  0.250  0.500-   5 3.22   6 3.22   7 3.22   8 3.22  17 3.22  19 3.22  21 3.22  23 3.22
                            25 3.22  26 3.22  29 3.22  30 3.22
  14  0.750  0.250  0.500-   5 3.22   6 3.22   7 3.22   8 3.22  18 3.22  20 3.22  22 3.22  24 3.22
                            25 3.22  26 3.22  29 3.22  30 3.22
  15  0.250  0.750  0.500-   5 3.22   6 3.22   7 3.22   8 3.22  17 3.22  19 3.22  21 3.22  23 3.22
                            27 3.22  28 3.22  31 3.22  32 3.22
  16  0.750  0.750  0.500-   5 3.22   6 3.22   7 3.22   8 3.22  18 3.22  20 3.22  22 3.22  24 3.22
                            27 3.22  28 3.22  31 3.22  32 3.22
  17  0.250  0.000  0.250-   1 3.21   2 3.22   5 3.22   6 3.22   9 3.22  11 3.22  13 3.22  15 3.22
                            25 3.22  26 3.22  27 3.22  28 3.22
  18  0.750  0.000  0.250-   2 3.22   5 3.22   6 3.22  10 3.22  12 3.22  14 3.22  16 3.22  25 3.22
                            26 3.22  27 3.22  28 3.22   1 3.22
  19  0.250  0.500  0.250-   3 3.22   4 3.22   7 3.22   8 3.22   9 3.22  11 3.22  13 3.22  15 3.22
                            25 3.22  26 3.22  27 3.22  28 3.22
  20  0.750  0.500  0.250-   3 3.22   4 3.22   7 3.22   8 3.22  10 3.22  12 3.22  14 3.22  16 3.22
                            25 3.22  26 3.22  27 3.22  28 3.22
  21  0.250  0.000  0.750-   1 3.21   2 3.22   5 3.22   6 3.22   9 3.22  11 3.22  13 3.22  15 3.22
                            29 3.22  30 3.22  31 3.22  32 3.22
  22  0.750  0.000  0.750-   2 3.22   5 3.22   6 3.22  10 3.22  12 3.22  14 3.22  16 3.22  29 3.22
                            30 3.22  31 3.22  32 3.22   1 3.22
  23  0.250  0.500  0.750-   3 3.22   4 3.22   7 3.22   8 3.22   9 3.22  11 3.22  13 3.22  15 3.22
                            29 3.22  30 3.22  31 3.22  32 3.22
  24  0.750  0.500  0.750-   3 3.22   4 3.22   7 3.22   8 3.22  10 3.22  12 3.22  14 3.22  16 3.22
                            29 3.22  30 3.22  31 3.22  32 3.22
  25  0.000  0.250  0.250-   3 3.22   5 3.22   7 3.22   9 3.22  10 3.22  13 3.22  14 3.22  17 3.22
                            18 3.22  19 3.22  20 3.22   1 3.22
  26  0.500  0.250  0.250-   2 3.22   4 3.22   6 3.22   8 3.22   9 3.22  10 3.22  13 3.22  14 3.22
                            17 3.22  18 3.22  19 3.22  20 3.22
  27  0.000  0.750  0.250-   3 3.22   5 3.22   7 3.22  11 3.22  12 3.22  15 3.22  16 3.22  17 3.22
                            18 3.22  19 3.22  20 3.22   1 3.22
  28  0.500  0.750  0.250-   2 3.22   4 3.22   6 3.22   8 3.22  11 3.22  12 3.22  15 3.22  16 3.22
                            17 3.22  18 3.22  19 3.22  20 3.22
  29  0.000  0.250  0.750-   3 3.22   5 3.22   7 3.22   9 3.22  10 3.22  13 3.22  14 3.22  21 3.22
                            22 3.22  23 3.22  24 3.22   1 3.22
  30  0.500  0.250  0.750-   2 3.22   4 3.22   6 3.22   8 3.22   9 3.22  10 3.22  13 3.22  14 3.22
                            21 3.22  22 3.22  23 3.22  24 3.22
  31  0.000  0.750  0.750-   3 3.22   5 3.22   7 3.22  11 3.22  12 3.22  15 3.22  16 3.22  21 3.22
                            22 3.22  23 3.22  24 3.22   1 3.22
  32  0.500  0.750  0.750-   2 3.22   4 3.22   6 3.22   8 3.22  11 3.22  12 3.22  15 3.22  16 3.22
                            21 3.22  22 3.22  23 3.22  24 3.22

  LATTYP: Found a simple cubic cell.
 ALAT       =     9.0968171470

  Lattice vectors:

 A1 = (   9.0968171470,   0.0000000000,   0.0000000000)
 A2 = (   0.0000000000,   9.0968171470,   0.0000000000)
 A3 = (   0.0000000000,   0.0000000000,   9.0968171470)
 Subroutine PRICEL returns:
 Original cell was already a primitive cell.

Analysis of symmetry for initial positions (statically):

 Routine SETGRP: Setting up the symmetry group for a
 simple cubic supercell.

 Subroutine GETGRP returns: Found  8 space group operations
 (whereof  8 operations were pure point group operations)
 out of a pool of 48 trial point group operations.

The static configuration has the point symmetry C_4v.

Analysis of symmetry for dynamics (positions and initial velocities):

 Subroutine DYNSYM returns: Found  8 space group operations
 (whereof  8 operations were pure point group operations)
 out of a pool of  8 trial space group operations
 (whereof  8 operations were pure point group operations)
 and found also     1 'primitive' translations

The dynamic configuration has the point symmetry C_4v.

 KPOINTS: Automatic mesh

Automatic generation of k-mesh.

 Subroutine IBZKPT returns following result:

 Found    196 irreducible k-points:

 Following reciprocal coordinates:
            Coordinates               Weight
  0.000000  0.000000  0.000000      1.000000
  0.083333  0.000000  0.000000      2.000000
  0.166667  0.000000  0.000000      2.000000
  0.250000  0.000000  0.000000      2.000000
  0.333333  0.000000  0.000000      2.000000
  0.416667  0.000000  0.000000      2.000000
  0.500000  0.000000  0.000000      1.000000
  0.000000  0.083333  0.000000      4.000000
  0.083333  0.083333  0.000000      8.000000
  0.166667  0.083333  0.000000      8.000000
  0.250000  0.083333  0.000000      8.000000
  0.333333  0.083333  0.000000      8.000000
  0.416667  0.083333  0.000000      8.000000
  0.500000  0.083333  0.000000      4.000000
  0.000000  0.166667  0.000000      4.000000
  0.083333  0.166667  0.000000      8.000000
  0.166667  0.166667  0.000000      8.000000
  0.250000  0.166667  0.000000      8.000000
  0.333333  0.166667  0.000000      8.000000
  0.416667  0.166667  0.000000      8.000000
  0.500000  0.166667  0.000000      4.000000
  0.000000  0.250000  0.000000      4.000000
  0.083333  0.250000  0.000000      8.000000
  0.166667  0.250000  0.000000      8.000000
  0.250000  0.250000  0.000000      8.000000
  0.333333  0.250000  0.000000      8.000000
  0.416667  0.250000  0.000000      8.000000
  0.500000  0.250000  0.000000      4.000000
  0.000000  0.333333  0.000000      4.000000
  0.083333  0.333333  0.000000      8.000000
  0.166667  0.333333  0.000000      8.000000
  0.250000  0.333333  0.000000      8.000000
  0.333333  0.333333  0.000000      8.000000
  0.416667  0.333333  0.000000      8.000000
  0.500000  0.333333  0.000000      4.000000
  0.000000  0.416667  0.000000      4.000000
  0.083333  0.416667  0.000000      8.000000
  0.166667  0.416667  0.000000      8.000000
  0.250000  0.416667  0.000000      8.000000
  0.333333  0.416667  0.000000      8.000000
  0.416667  0.416667  0.000000      8.000000
  0.500000  0.416667  0.000000      4.000000
  0.000000  0.500000  0.000000      2.000000
  0.083333  0.500000  0.000000      4.000000
  0.166667  0.500000  0.000000      4.000000
  0.250000  0.500000  0.000000      4.000000
  0.333333  0.500000  0.000000      4.000000
  0.416667  0.500000  0.000000      4.000000
  0.500000  0.500000  0.000000      2.000000
  0.000000  0.083333  0.083333      4.000000
  0.083333  0.083333  0.083333      8.000000
  0.166667  0.083333  0.083333      8.000000
  0.250000  0.083333  0.083333      8.000000
  0.333333  0.083333  0.083333      8.000000
  0.416667  0.083333  0.083333      8.000000
  0.500000  0.083333  0.083333      4.000000
  0.000000  0.166667  0.083333      8.000000
  0.083333  0.166667  0.083333     16.000000
  0.166667  0.166667  0.083333     16.000000
  0.250000  0.166667  0.083333     16.000000
[...]
  0.500000  0.416667  0.416667      4.000000
  0.000000  0.500000  0.416667      4.000000
  0.083333  0.500000  0.416667      8.000000
  0.166667  0.500000  0.416667      8.000000
  0.250000  0.500000  0.416667      8.000000
  0.333333  0.500000  0.416667      8.000000
  0.416667  0.500000  0.416667      8.000000
  0.500000  0.500000  0.416667      4.000000
  0.000000  0.500000  0.500000      1.000000
  0.083333  0.500000  0.500000      2.000000
  0.166667  0.500000  0.500000      2.000000
  0.250000  0.500000  0.500000      2.000000
  0.333333  0.500000  0.500000      2.000000
  0.416667  0.500000  0.500000      2.000000
  0.500000  0.500000  0.500000      1.000000

 Following cartesian coordinates:
            Coordinates               Weight
  0.000000  0.000000  0.000000      1.000000
  0.009161  0.000000  0.000000      2.000000
  0.018321  0.000000  0.000000      2.000000
  0.027482  0.000000  0.000000      2.000000
  0.036643  0.000000  0.000000      2.000000
  0.045804  0.000000  0.000000      2.000000
  0.054964  0.000000  0.000000      1.000000
  0.000000  0.009161  0.000000      4.000000
  0.009161  0.009161  0.000000      8.000000
  0.018321  0.009161  0.000000      8.000000
[...]
 number of electron  352.0000006 magnetization
 augmentation part   131.0150082 magnetization

[...]

 eigenvalue-minimisations  : 47040
 total energy-change (2. order) :-0.7398194E-07  (-0.8491425E-10)
 number of electron  352.0000006 magnetization
 augmentation part   131.0150023 magnetization

 Broyden mixing:
  rms(total) = 0.50133E-05    rms(broyden)= 0.50115E-05
  rms(prec ) = 0.57343E-05
  weight for this iteration     100.00

 eigenvalues of (default mixing * dielectric matrix)
  average eigenvalue GAMMA=   1.6478
  2.9883  2.7973  2.5348  2.5348  1.0553  1.0553  1.0460  0.9213  0.7723  0.7723

[...]

----------------------------------------- Iteration    1(  16)  ---------------------------------------

 eigenvalue-minimisations  : 46336
 total energy-change (2. order) : 0.9189534E-08  ( 0.2849287E-10)
 number of electron  352.0000006 magnetization
 augmentation part   131.0150023 magnetization

 Free energy of the ion-electron system (eV)
  alpha Z        PSCENC =      2547.57918915
  Ewald energy   TEWEN  =    -28101.40609550
  -1/2 Hartree   DENC   =     -5054.49872475
  -V(xc)+E(xc)   XCENC  =       447.19894512
  PAW double counting   =     23350.78454362   -22644.60497485
  entropy T*S    EENTRO =        -0.00059426
  eigenvalues    EBANDS =      -271.87277552
  atomic energy  EATOM  =     29633.78979189
  free energy    TOTEN  =       -93.03069513 eV

  energy without entropy =      -93.03010087  energy(sigma->0) =      -93.03039800

 average (electrostatic) potential at core
  the test charge radii are     1.2098
  (the norm of the test charge is              1.0000)
       1 -48.0574       2 -48.0574       3 -48.0574       4 -48.0574       5 -48.0574
       6 -48.0574       7 -48.0574       8 -48.0574       9 -48.0584      10 -48.0563
      11 -48.0584      12 -48.0563      13 -48.0574      14 -48.0573      15 -48.0574
      16 -48.0573      17 -48.0584      18 -48.0563      19 -48.0574      20 -48.0573
      21 -48.0584      22 -48.0563      23 -48.0574      24 -48.0573      25 -48.0574
      26 -48.0574      27 -48.0574      28 -48.0574      29 -48.0574      30 -48.0574
      31 -48.0574      32 -48.0574

 E-fermi :   2.2908     XC(G=0): -10.8647     alpha+bet : -7.3771
   add alpha+bet to get absolut eigen values

 k-point   1 :       0.0000    0.0000    0.0000
  band No.  band energies     occupation
      1      -4.6429      2.00000
      2      -2.7701      2.00000
      3      -2.7676      2.00000
      4      -2.7675      2.00000
      5      -2.7675      2.00000
      6      -2.7675      2.00000
      7      -2.7650      2.00000
      8      -2.6513      2.00000
      9      -2.6513      2.00000
     10      -2.6513      2.00000
     11      -2.6513      2.00000
     12      -2.4128      2.00000
     13      -2.4128      2.00000
     14      -2.4128      2.00000
     15      -2.2502      2.00000
     16      -2.2502      2.00000
     17      -2.2502      2.00000
     18      -1.8411      2.00000
     19      -1.8401      2.00000
     20      -1.8401      2.00000
     21      -1.8389      2.00000
     22      -1.8387      2.00000
     23      -1.8387      2.00000
     24      -1.8387      2.00000
     25      -1.8387      2.00000
     26      -1.8385      2.00000
     27      -1.8373      2.00000
     28      -1.8373      2.00000
     29      -1.8363      2.00000
     30      -1.7139      2.00000
     31      -1.7126      2.00000
     32      -1.7126      2.00000
     33      -1.7126      2.00000
     34      -1.7126      2.00000
     35      -1.7112      2.00000
     36      -1.6967      2.00000
     37      -1.6954      2.00000
     38      -1.6954      2.00000
     39      -1.6954      2.00000
     40      -1.6954      2.00000
     41      -1.6941      2.00000
     42      -1.3181      2.00000
     43      -1.3165      2.00000
     44      -1.3165      2.00000
     45      -1.3157      2.00000
     46      -1.3157      2.00000
     47      -1.3157      2.00000
     48      -1.3157      2.00000
     49      -1.3157      2.00000
     50      -1.3156      2.00000
     51      -1.3149      2.00000
     52      -1.3149      2.00000
     53      -1.3134      2.00000
     54      -1.2684      2.00000
     55      -1.2684      2.00000
     56      -1.2668      2.00000
     57      -1.2668      2.00000
     58      -1.2668      2.00000
     59      -1.2668      2.00000
     60      -1.2668      2.00000
[...]
    202       7.7107      0.00000
    203       7.7107      0.00000
    204       7.7110      0.00000
    205       7.7110      0.00000
    206       7.7110      0.00000
    207       7.7110      0.00000
    208       7.7112      0.00000
    209       7.7112      0.00000
    210       7.7138      0.00000
    211       7.7138      0.00000
    212       9.2105      0.00000
    213       9.2111      0.00000
    214       9.2113      0.00000
    215       9.2117      0.00000
    216       9.2126      0.00000

[...]

 k-point 196 :       0.5000    0.5000    0.5000
  band No.  band energies     occupation
      1      -3.2599      2.00000
      2      -3.2572      2.00000
      3      -3.2572      2.00000
      4      -3.2569      2.00000
      5      -3.2567      2.00000
      6      -3.2563      2.00000
      7      -3.2563      2.00000
      8      -3.2537      2.00000
      9      -2.0691      2.00000
     10      -2.0691      2.00000
     11      -2.0691      2.00000
     12      -2.0689      2.00000
     13      -2.0687      2.00000
     14      -2.0680      2.00000
     15      -2.0676      2.00000
     16      -2.0675      2.00000
     17      -2.0675      2.00000
     18      -2.0675      2.00000
     19      -2.0675      2.00000
     20      -2.0674      2.00000
     21      -2.0674      2.00000
     22      -2.0673      2.00000
     23      -2.0673      2.00000
     24      -2.0673      2.00000
     25      -2.0673      2.00000
     26      -2.0672      2.00000
     27      -2.0668      2.00000
     28      -2.0661      2.00000
     29      -2.0659      2.00000
     30      -2.0657      2.00000
     31      -2.0657      2.00000
     32      -2.0657      2.00000
     33      -1.4752      2.00000
     34      -1.4727      2.00000
     35      -1.4727      2.00000
     36      -1.4725      2.00000
     37      -1.4725      2.00000
     38      -1.4722      2.00000
     39      -1.4719      2.00000
     40      -1.4719      2.00000
     41      -1.4717      2.00000
     42      -1.4717      2.00000
     43      -1.4717      2.00000
     44      -1.4717      2.00000
     45      -1.4716      2.00000
     46      -1.4716      2.00000
     47      -1.4716      2.00000
     48      -1.4716      2.00000
     49      -1.4714      2.00000
     50      -1.4714      2.00000
     51      -1.4711      2.00000
     52      -1.4708      2.00000
     53      -1.4708      2.00000
     54      -1.4706      2.00000
     55      -1.4706      2.00000
     56      -1.4681      2.00000
     57      -1.0541      2.00000
     58      -1.0532      2.00000
     59      -1.0528      2.00000
     60      -1.0528      2.00000
[...]
    202       6.7814      0.00000
    203       6.7815      0.00000
    204       6.7815      0.00000
    205       6.7815      0.00000
    206       6.7815      0.00000
    207       6.7816      0.00000
    208       6.7816      0.00000
    209       6.7817      0.00000
    210       6.7819      0.00000
    211       6.7819      0.00000
    212       6.7822      0.00000
    213       6.7826      0.00000
    214       6.7845      0.00000
    215       6.7853      0.00000
    216       6.7853      0.00000

 soft charge-density along one line, spin component           1
         0         1         2         3         4         5         6         7         8         9
 total charge-density along one line

------------------------ aborting loop because EDIFF is reached ----------------------------------------

  FREE ENERGIE OF THE ION-ELECTRON SYSTEM (eV)
  free  energy   TOTEN  =       -93.030695 eV

  energy  without entropy=      -93.030101  energy(sigma->0) =      -93.030398

  FORCE on cell =-STRESS in cart. coord.  units (eV/reduce length):
  Direction    X        Y        Z        XY       YZ       ZX
  Alpha Z   2547.58   2547.58   2547.58
  Ewald    -9367.19  -9367.17  -9367.17     -0.00     -0.00     -0.00
  Hartree   1684.82   1684.84   1684.84     -0.00     -0.00     -0.00
  E(xc)    -1568.33  -1568.33  -1568.33      0.00      0.00      0.00
  Local     2109.52   2109.47   2109.47      0.00      0.00      0.00
  n-local  -1738.88  -1744.84  -1732.93      2.60      1.85      1.11
  augment   1376.94   1376.94   1376.94     -0.00     -0.00     -0.00
  Kinetic   4880.47   4874.98   4885.97      0.38     -0.29     -0.96
  Total      -75.08    -75.08    -75.08      0.00      0.00      0.00
  in kB     -159.79   -159.79   -159.79      0.00      0.00      0.00

 VOLUME and BASIS-vectors are now :
  energy-cutoff  :      750.00
  volume of cell :      752.78
      direct lattice vectors                 reciprocal lattice vectors
     9.096817147  0.000000000  0.000000000     0.109928559  0.000000000  0.000000000
     0.000000000  9.096817147  0.000000000     0.000000000  0.109928559  0.000000000
     0.000000000  0.000000000  9.096817147     0.000000000  0.000000000  0.109928559

  length of vectors
     9.096817147  9.096817147  9.096817147     0.109928559  0.109928559  0.109928559

 FORCES acting on ions
    electron-ion (+dipol)            ewald-force                    non-local-force                 convergence-correction
   0.304E+01 -.468E-13 0.164E-07   -.301E+01 0.222E-13 0.799E-14   -.355E-01 0.000E+00 0.000E+00   -.470E-04 -.204E-12 -.333E-12
   -.785E+00 -.314E-13 -.165E-07   0.793E+00 0.866E-13 0.133E-14   -.487E-02 0.000E+00 0.000E+00   -.173E-04 -.237E-12 -.507E-12
   0.251E+00 0.418E-12 -.279E-11   -.251E+00 0.906E-13 -.888E-14   0.731E-04 -.593E-20 0.678E-20   0.140E-06 0.214E-12 -.244E-12
   -.202E+00 -.796E-12 -.126E-11   0.197E+00 0.555E-13 0.133E-14   0.281E-02 -.254E-20 0.000E+00   0.109E-05 0.246E-12 -.346E-12
   0.251E+00 -.464E-13 0.472E-11   -.251E+00 0.338E-13 0.533E-14   0.731E-04 -.508E-20 0.000E+00   0.469E-06 -.235E-12 0.402E-12
   -.202E+00 -.575E-13 0.144E-11   0.197E+00 0.582E-13 -.133E-14   0.281E-02 -.339E-20 0.847E-21   0.101E-05 -.293E-12 0.578E-12
   0.105E+00 0.418E-12 -.266E-11   -.104E+00 0.941E-13 0.888E-14   -.784E-03 0.000E+00 0.339E-20   0.133E-05 0.246E-12 0.313E-12
   -.967E-01 -.125E-11 0.718E-11   0.970E-01 0.555E-13 -.133E-14   -.213E-03 0.000E+00 0.000E+00   -.237E-05 0.302E-12 0.417E-12
   -.385E+00 -.735E+00 -.148E-11   0.381E+00 0.732E+00 -.124E-13   0.358E-02 0.249E-02 -.762E-20   0.895E-05 0.349E-05 -.398E-12
   -.387E+00 0.729E+00 -.238E-12   0.383E+00 -.727E+00 -.160E-13   0.348E-02 -.242E-02 0.000E+00   0.837E-05 -.496E-05 -.292E-12
   -.385E+00 0.735E+00 0.205E-11   0.381E+00 -.732E+00 0.133E-14   0.358E-02 -.249E-02 0.678E-20   0.895E-05 -.349E-05 -.403E-12
   -.387E+00 -.729E+00 -.873E-12   0.383E+00 0.727E+00 0.133E-14   0.348E-02 0.242E-02 0.847E-21   0.837E-05 0.496E-05 -.336E-12
   -.114E-01 -.605E-01 -.791E-11   0.117E-01 0.602E-01 0.124E-13   -.981E-04 0.211E-03 0.000E+00   -.121E-05 -.885E-06 0.462E-12
   -.124E-01 0.604E-01 -.331E-11   0.127E-01 -.601E-01 0.160E-13   -.984E-04 -.214E-03 0.847E-21   -.147E-05 -.280E-05 0.368E-12
   -.114E-01 0.605E-01 -.808E-11   0.117E-01 -.602E-01 -.133E-14   -.981E-04 -.211E-03 0.000E+00   -.121E-05 0.885E-06 0.466E-12
   -.124E-01 -.604E-01 -.310E-11   0.127E-01 0.601E-01 -.133E-14   -.984E-04 0.214E-03 0.847E-21   -.147E-05 0.280E-05 0.406E-12
   -.385E+00 -.588E-13 -.735E+00   0.381E+00 -.728E-13 0.732E+00   0.358E-02 -.339E-20 0.249E-02   0.889E-05 -.220E-12 0.355E-05
   -.387E+00 -.367E-14 0.729E+00   0.383E+00 -.373E-13 -.727E+00   0.348E-02 -.339E-20 -.242E-02   0.830E-05 -.250E-12 -.502E-05
   -.114E-01 0.640E-12 -.605E-01   0.117E-01 0.533E-14 0.602E-01   -.981E-04 0.000E+00 0.211E-03   -.119E-05 0.229E-12 -.826E-06
   -.124E-01 -.128E-11 0.604E-01   0.127E-01 -.480E-13 -.601E-01   -.984E-04 -.169E-20 -.214E-03   -.145E-05 0.241E-12 -.286E-05
   -.385E+00 -.554E-13 0.735E+00   0.381E+00 -.555E-13 -.732E+00   0.358E-02 0.339E-20 -.249E-02   0.889E-05 -.223E-12 -.355E-05
   -.387E+00 -.488E-13 -.729E+00   0.383E+00 -.555E-13 0.727E+00   0.348E-02 -.678E-20 0.242E-02   0.830E-05 -.291E-12 0.502E-05
   -.114E-01 0.352E-12 0.605E-01   0.117E-01 -.133E-14 -.602E-01   -.981E-04 0.121E-20 -.211E-03   -.119E-05 0.233E-12 0.826E-06
   -.124E-01 -.128E-11 -.604E-01   0.127E-01 -.298E-13 0.601E-01   -.984E-04 -.339E-20 0.214E-03   -.145E-05 0.281E-12 0.286E-05
   0.471E+00 0.165E-02 0.165E-02   -.474E+00 -.164E-02 -.164E-02   0.182E-02 -.132E-05 -.132E-05   0.441E-05 -.146E-05 -.146E-05
   -.266E+00 -.478E-03 -.478E-03   0.266E+00 0.491E-03 0.491E-03   0.225E-03 -.718E-05 -.718E-05   -.288E-05 -.126E-05 -.126E-05
   0.471E+00 -.165E-02 0.165E-02   -.474E+00 0.164E-02 -.164E-02   0.182E-02 0.132E-05 -.132E-05   0.441E-05 0.146E-05 -.146E-05
   -.266E+00 0.478E-03 -.478E-03   0.266E+00 -.491E-03 0.491E-03   0.225E-03 0.718E-05 -.718E-05   -.288E-05 0.126E-05 -.126E-05
   0.471E+00 0.165E-02 -.165E-02   -.474E+00 -.164E-02 0.164E-02   0.182E-02 -.132E-05 0.132E-05   0.441E-05 -.146E-05 0.146E-05
   -.266E+00 -.478E-03 0.478E-03   0.266E+00 0.491E-03 -.491E-03   0.225E-03 -.718E-05 0.718E-05   -.288E-05 -.126E-05 0.126E-05
   0.471E+00 -.165E-02 -.165E-02   -.474E+00 0.164E-02 0.164E-02   0.182E-02 0.132E-05 0.132E-05   0.441E-05 0.146E-05 0.146E-05
   -.266E+00 0.478E-03 0.478E-03   0.266E+00 -.491E-03 -.491E-03   0.225E-03 0.718E-05 0.718E-05   -.288E-05 0.126E-05 0.126E-05
   -.217E-05 -.226E-10 -.374E-11   0.311E-13 0.105E-12 0.111E-13   0.172E-05 -.393E-18 0.108E-18   0.181E-05 -.862E-13 0.597E-12

 POSITION                                       TOTAL-FORCE (eV/Angst)
      0.01000      0.00000      0.00000         0.003622      0.000000     -0.000000
      4.54841      0.00000      0.00000         0.002851      0.000000     -0.000000
      0.00000      4.54841      0.00000        -0.000386     -0.000000      0.000000
      4.54841      4.54841      0.00000        -0.001553      0.000000     -0.000000
      0.00000      0.00000      4.54841        -0.000386      0.000000      0.000000
      4.54841      0.00000      4.54841        -0.001553      0.000000      0.000000
      0.00000      4.54841      4.54841         0.000234     -0.000000      0.000000
      4.54841      4.54841      4.54841        -0.000006      0.000000     -0.000000
      2.27420      2.27420      0.00000        -0.000269      0.000103     -0.000000
      6.82261      2.27420      0.00000        -0.000339     -0.000014      0.000000
      2.27420      6.82261      0.00000        -0.000269     -0.000103      0.000000
      6.82261      6.82261      0.00000        -0.000339      0.000014      0.000000
      2.27420      2.27420      4.54841         0.000214     -0.000047      0.000000
      6.82261      2.27420      4.54841         0.000214      0.000049     -0.000000
      2.27420      6.82261      4.54841         0.000214      0.000047      0.000000
      6.82261      6.82261      4.54841         0.000214     -0.000049     -0.000000
      2.27420      0.00000      2.27420        -0.000269     -0.000000      0.000103
      6.82261      0.00000      2.27420        -0.000339      0.000000     -0.000014
      2.27420      4.54841      2.27420         0.000214     -0.000000     -0.000047
      6.82261      4.54841      2.27420         0.000214      0.000000      0.000049
      2.27420      0.00000      6.82261        -0.000269      0.000000     -0.000103
      6.82261      0.00000      6.82261        -0.000339      0.000000      0.000014
      2.27420      4.54841      6.82261         0.000214     -0.000000      0.000047
      6.82261      4.54841      6.82261         0.000214      0.000000     -0.000049
      0.00000      2.27420      2.27420        -0.001039      0.000008      0.000008
      4.54841      2.27420      2.27420         0.000513      0.000004      0.000004
      0.00000      6.82261      2.27420        -0.001039     -0.000008      0.000008
      4.54841      6.82261      2.27420         0.000513     -0.000004      0.000004
      0.00000      2.27420      6.82261        -0.001039      0.000008     -0.000008
      4.54841      2.27420      6.82261         0.000513      0.000004     -0.000004
      0.00000      6.82261      6.82261        -0.001039     -0.000008     -0.000008
      4.54841      6.82261      6.82261         0.000513     -0.000004     -0.000004
    total drift:                                0.000001     -0.000000     -0.000000

 mean value of Nose-termostat <S>:     1.000 mean value of <T> :     0.000
 mean temperature <T/S>/<1/S>  :     0.000