 vasp.4.6.28 25Jul05 complex
 executed on             LinuxIFC date 2017.01.11  02:54:14

 INCAR:
 POTCAR:   PAW_PBE Au 06Sep2000
 POTCAR:   PAW_PBE Au 06Sep2000
   VRHFIN =Au: s1d10

   TITEL  = PAW_PBE Au 06Sep2000
   POMASS =  196.966; ZVAL   =   11.000    mass and valenz
   ENMAX  =  229.948; ENMIN  =  172.461 eV
   QCUT   =   -4.111; QGAM   =    8.222    optimization parameters

   Description
     l     E      TYP  RCUT    TYP  RCUT
     2   .000     23  2.500
     2   .000     23  2.500
     0   .000     23  2.500
     0   .000     23  2.500
     1  -.200     23  2.500
     1   .000     23  2.500
     3   .000      7   .000

 PAW_PBE Au 06Sep2000                   :

 POSCAR: Au
  positions in direct lattice

 ion  position               nearest neighbor table
   1  0.001  0.000  0.000-   9 3.06  11 3.06  17 3.06  21 3.06  25 3.07  27 3.07  29 3.07  31 3.07
                            10 3.08  18 3.08  12 3.08  22 3.08
   2  0.500  0.000  0.000-   9 3.07  10 3.07  11 3.07  12 3.07  17 3.07  18 3.07  21 3.07  22 3.07
                            26 3.07  28 3.07  30 3.07  32 3.07
   3  0.000  0.500  0.000-   9 3.07  10 3.07  11 3.07  12 3.07  19 3.07  20 3.07  23 3.07  24 3.07
                            25 3.07  27 3.07  29 3.07  31 3.07
   4  0.500  0.500  0.000-   9 3.07  10 3.07  11 3.07  12 3.07  19 3.07  20 3.07  23 3.07  24 3.07
                            26 3.07  28 3.07  30 3.07  32 3.07
   5  0.000  0.000  0.500-  13 3.07  14 3.07  15 3.07  16 3.07  17 3.07  18 3.07  21 3.07  22 3.07
                            25 3.07  27 3.07  29 3.07  31 3.07
   6  0.500  0.000  0.500-  13 3.07  14 3.07  15 3.07  16 3.07  17 3.07  18 3.07  21 3.07  22 3.07
                            26 3.07  28 3.07  30 3.07  32 3.07
   7  0.000  0.500  0.500-  13 3.07  14 3.07  15 3.07  16 3.07  19 3.07  20 3.07  23 3.07  24 3.07
                            25 3.07  27 3.07  29 3.07  31 3.07
   8  0.500  0.500  0.500-  13 3.07  14 3.07  15 3.07  16 3.07  19 3.07  20 3.07  23 3.07  24 3.07
                            26 3.07  28 3.07  30 3.07  32 3.07
   9  0.250  0.250  0.000-   1 3.06   2 3.07   3 3.07   4 3.07  17 3.07  19 3.07  21 3.07  23 3.07
                            25 3.07  26 3.07  29 3.07  30 3.07
  10  0.750  0.250  0.000-   2 3.07   3 3.07   4 3.07  18 3.07  20 3.07  22 3.07  24 3.07  25 3.07
                            26 3.07  29 3.07  30 3.07   1 3.08
  11  0.250  0.750  0.000-   1 3.06   2 3.07   3 3.07   4 3.07  17 3.07  19 3.07  21 3.07  23 3.07
                            27 3.07  28 3.07  31 3.07  32 3.07
  12  0.750  0.750  0.000-   2 3.07   3 3.07   4 3.07  18 3.07  20 3.07  22 3.07  24 3.07  27 3.07
                            28 3.07  31 3.07  32 3.07   1 3.08
  13  0.250  0.250  0.500-   5 3.07   6 3.07   7 3.07   8 3.07  17 3.07  19 3.07  21 3.07  23 3.07
                            25 3.07  26 3.07  29 3.07  30 3.07
  14  0.750  0.250  0.500-   5 3.07   6 3.07   7 3.07   8 3.07  18 3.07  20 3.07  22 3.07  24 3.07
                            25 3.07  26 3.07  29 3.07  30 3.07
  15  0.250  0.750  0.500-   5 3.07   6 3.07   7 3.07   8 3.07  17 3.07  19 3.07  21 3.07  23 3.07
                            27 3.07  28 3.07  31 3.07  32 3.07
  16  0.750  0.750  0.500-   5 3.07   6 3.07   7 3.07   8 3.07  18 3.07  20 3.07  22 3.07  24 3.07
                            27 3.07  28 3.07  31 3.07  32 3.07
  17  0.250  0.000  0.250-   1 3.06   2 3.07   5 3.07   6 3.07   9 3.07  11 3.07  13 3.07  15 3.07
                            25 3.07  26 3.07  27 3.07  28 3.07
  18  0.750  0.000  0.250-   2 3.07   5 3.07   6 3.07  10 3.07  12 3.07  14 3.07  16 3.07  25 3.07
                            26 3.07  27 3.07  28 3.07   1 3.08
  19  0.250  0.500  0.250-   3 3.07   4 3.07   7 3.07   8 3.07   9 3.07  11 3.07  13 3.07  15 3.07
                            25 3.07  26 3.07  27 3.07  28 3.07
  20  0.750  0.500  0.250-   3 3.07   4 3.07   7 3.07   8 3.07  10 3.07  12 3.07  14 3.07  16 3.07
                            25 3.07  26 3.07  27 3.07  28 3.07
  21  0.250  0.000  0.750-   1 3.06   2 3.07   5 3.07   6 3.07   9 3.07  11 3.07  13 3.07  15 3.07
                            29 3.07  30 3.07  31 3.07  32 3.07
  22  0.750  0.000  0.750-   2 3.07   5 3.07   6 3.07  10 3.07  12 3.07  14 3.07  16 3.07  29 3.07
                            30 3.07  31 3.07  32 3.07   1 3.08
  23  0.250  0.500  0.750-   3 3.07   4 3.07   7 3.07   8 3.07   9 3.07  11 3.07  13 3.07  15 3.07
                            29 3.07  30 3.07  31 3.07  32 3.07
  24  0.750  0.500  0.750-   3 3.07   4 3.07   7 3.07   8 3.07  10 3.07  12 3.07  14 3.07  16 3.07
                            29 3.07  30 3.07  31 3.07  32 3.07
  25  0.000  0.250  0.250-   3 3.07   5 3.07   7 3.07   9 3.07  10 3.07  13 3.07  14 3.07  17 3.07
                            18 3.07  19 3.07  20 3.07   1 3.07
  26  0.500  0.250  0.250-   2 3.07   4 3.07   6 3.07   8 3.07   9 3.07  10 3.07  13 3.07  14 3.07
                            17 3.07  18 3.07  19 3.07  20 3.07
  27  0.000  0.750  0.250-   3 3.07   5 3.07   7 3.07  11 3.07  12 3.07  15 3.07  16 3.07  17 3.07
                            18 3.07  19 3.07  20 3.07   1 3.07
  28  0.500  0.750  0.250-   2 3.07   4 3.07   6 3.07   8 3.07  11 3.07  12 3.07  15 3.07  16 3.07
                            17 3.07  18 3.07  19 3.07  20 3.07
  29  0.000  0.250  0.750-   3 3.07   5 3.07   7 3.07   9 3.07  10 3.07  13 3.07  14 3.07  21 3.07
                            22 3.07  23 3.07  24 3.07   1 3.07
  30  0.500  0.250  0.750-   2 3.07   4 3.07   6 3.07   8 3.07   9 3.07  10 3.07  13 3.07  14 3.07
                            21 3.07  22 3.07  23 3.07  24 3.07
  31  0.000  0.750  0.750-   3 3.07   5 3.07   7 3.07  11 3.07  12 3.07  15 3.07  16 3.07  21 3.07
                            22 3.07  23 3.07  24 3.07   1 3.07
  32  0.500  0.750  0.750-   2 3.07   4 3.07   6 3.07   8 3.07  11 3.07  12 3.07  15 3.07  16 3.07
                            21 3.07  22 3.07  23 3.07  24 3.07

  LATTYP: Found a simple cubic cell.
 ALAT       =     8.6795319568

  Lattice vectors:

 A1 = (   8.6795319568,   0.0000000000,   0.0000000000)
 A2 = (   0.0000000000,   8.6795319568,   0.0000000000)
 A3 = (   0.0000000000,   0.0000000000,   8.6795319568)
 Subroutine PRICEL returns:
 Original cell was already a primitive cell.

Analysis of symmetry for initial positions (statically):

 Routine SETGRP: Setting up the symmetry group for a
 simple cubic supercell.

 Subroutine GETGRP returns: Found  8 space group operations
 (whereof  8 operations were pure point group operations)
 out of a pool of 48 trial point group operations.

The static configuration has the point symmetry C_4v.

Analysis of symmetry for dynamics (positions and initial velocities):

 Subroutine DYNSYM returns: Found  8 space group operations
 (whereof  8 operations were pure point group operations)
 out of a pool of  8 trial space group operations
 (whereof  8 operations were pure point group operations)
 and found also     1 'primitive' translations

The dynamic configuration has the point symmetry C_4v.

 KPOINTS: Automatic mesh

Automatic generation of k-mesh.

 Subroutine IBZKPT returns following result:

 Found    196 irreducible k-points:

 Following reciprocal coordinates:
            Coordinates               Weight
  0.000000  0.000000  0.000000      1.000000
  0.083333  0.000000  0.000000      2.000000
  0.166667  0.000000  0.000000      2.000000
  0.250000  0.000000  0.000000      2.000000
  0.333333  0.000000  0.000000      2.000000
  0.416667  0.000000  0.000000      2.000000
  0.500000  0.000000  0.000000      1.000000
  0.000000  0.083333  0.000000      4.000000
  0.083333  0.083333  0.000000      8.000000
  0.166667  0.083333  0.000000      8.000000
  0.250000  0.083333  0.000000      8.000000
  0.333333  0.083333  0.000000      8.000000
  0.416667  0.083333  0.000000      8.000000
  0.500000  0.083333  0.000000      4.000000
  0.000000  0.166667  0.000000      4.000000
  0.083333  0.166667  0.000000      8.000000
  0.166667  0.166667  0.000000      8.000000
  0.250000  0.166667  0.000000      8.000000
  0.333333  0.166667  0.000000      8.000000
  0.416667  0.166667  0.000000      8.000000
  0.500000  0.166667  0.000000      4.000000
  0.000000  0.250000  0.000000      4.000000
  0.083333  0.250000  0.000000      8.000000
  0.166667  0.250000  0.000000      8.000000
  0.250000  0.250000  0.000000      8.000000
  0.333333  0.250000  0.000000      8.000000
  0.416667  0.250000  0.000000      8.000000
  0.500000  0.250000  0.000000      4.000000
  0.000000  0.333333  0.000000      4.000000
  0.083333  0.333333  0.000000      8.000000
  0.166667  0.333333  0.000000      8.000000
  0.250000  0.333333  0.000000      8.000000
  0.333333  0.333333  0.000000      8.000000
  0.416667  0.333333  0.000000      8.000000
  0.500000  0.333333  0.000000      4.000000
  0.000000  0.416667  0.000000      4.000000
  0.083333  0.416667  0.000000      8.000000
  0.166667  0.416667  0.000000      8.000000
  0.250000  0.416667  0.000000      8.000000
  0.333333  0.416667  0.000000      8.000000
  0.416667  0.416667  0.000000      8.000000
  0.500000  0.416667  0.000000      4.000000
  0.000000  0.500000  0.000000      2.000000
  0.083333  0.500000  0.000000      4.000000
  0.166667  0.500000  0.000000      4.000000
  0.250000  0.500000  0.000000      4.000000
  0.333333  0.500000  0.000000      4.000000
  0.416667  0.500000  0.000000      4.000000
  0.500000  0.500000  0.000000      2.000000
  0.000000  0.083333  0.083333      4.000000
  0.083333  0.083333  0.083333      8.000000
  0.166667  0.083333  0.083333      8.000000
  0.250000  0.083333  0.083333      8.000000
  0.333333  0.083333  0.083333      8.000000
  0.416667  0.083333  0.083333      8.000000
  0.500000  0.083333  0.083333      4.000000
  0.000000  0.166667  0.083333      8.000000
  0.083333  0.166667  0.083333     16.000000
  0.166667  0.166667  0.083333     16.000000
  0.250000  0.166667  0.083333     16.000000
[...]
  0.500000  0.416667  0.416667      4.000000
  0.000000  0.500000  0.416667      4.000000
  0.083333  0.500000  0.416667      8.000000
  0.166667  0.500000  0.416667      8.000000
  0.250000  0.500000  0.416667      8.000000
  0.333333  0.500000  0.416667      8.000000
  0.416667  0.500000  0.416667      8.000000
  0.500000  0.500000  0.416667      4.000000
  0.000000  0.500000  0.500000      1.000000
  0.083333  0.500000  0.500000      2.000000
  0.166667  0.500000  0.500000      2.000000
  0.250000  0.500000  0.500000      2.000000
  0.333333  0.500000  0.500000      2.000000
  0.416667  0.500000  0.500000      2.000000
  0.500000  0.500000  0.500000      1.000000

 Following cartesian coordinates:
            Coordinates               Weight
  0.000000  0.000000  0.000000      1.000000
  0.009601  0.000000  0.000000      2.000000
  0.019202  0.000000  0.000000      2.000000
  0.028803  0.000000  0.000000      2.000000
  0.038405  0.000000  0.000000      2.000000
  0.048006  0.000000  0.000000      2.000000
  0.057607  0.000000  0.000000      1.000000
  0.000000  0.009601  0.000000      4.000000
  0.009601  0.009601  0.000000      8.000000
  0.019202  0.009601  0.000000      8.000000
[...]
 number of electron  352.0000006 magnetization
 augmentation part   130.1766120 magnetization

[...]

 eigenvalue-minimisations  : 45556
 total energy-change (2. order) : 0.1220178E-07  (-0.1367871E-10)
 number of electron  352.0000006 magnetization
 augmentation part   130.1766208 magnetization

 Broyden mixing:
  rms(total) = 0.21386E-05    rms(broyden)= 0.21341E-05
  rms(prec ) = 0.28880E-05
  weight for this iteration     100.00

 eigenvalues of (default mixing * dielectric matrix)
  average eigenvalue GAMMA=   1.5606
  2.9208  2.7961  2.5053  2.5053  1.1265  1.0981  1.0312  0.9142  0.9142  0.7678
  0.5871

[...]

----------------------------------------- Iteration    1(  17)  ---------------------------------------

 eigenvalue-minimisations  : 45420
 total energy-change (2. order) : 0.4685717E-08  ( 0.6999953E-11)
 number of electron  352.0000006 magnetization
 augmentation part   130.1766208 magnetization

 Free energy of the ion-electron system (eV)
  alpha Z        PSCENC =      2932.96694511
  Ewald energy   TEWEN  =    -29452.43368388
  -1/2 Hartree   DENC   =     -4402.84527374
  -V(xc)+E(xc)   XCENC  =       457.88362466
  PAW double counting   =     23580.53501234   -22891.54325943
  entropy T*S    EENTRO =        -0.00056071
  eigenvalues    EBANDS =        39.86089595
  atomic energy  EATOM  =     29633.78979189
  free energy    TOTEN  =      -101.78650782 eV

  energy without entropy =     -101.78594710  energy(sigma->0) =     -101.78622746

 average (electrostatic) potential at core
  the test charge radii are     1.2098
  (the norm of the test charge is              1.0000)
       1 -47.0921       2 -47.0920       3 -47.0920       4 -47.0920       5 -47.0920
       6 -47.0920       7 -47.0920       8 -47.0920       9 -47.0932      10 -47.0909
      11 -47.0932      12 -47.0909      13 -47.0921      14 -47.0920      15 -47.0921
      16 -47.0920      17 -47.0932      18 -47.0909      19 -47.0921      20 -47.0920
      21 -47.0932      22 -47.0909      23 -47.0921      24 -47.0920      25 -47.0920
      26 -47.0920      27 -47.0920      28 -47.0920      29 -47.0920      30 -47.0920
      31 -47.0920      32 -47.0920

 E-fermi :   3.6236     XC(G=0): -11.6557     alpha+bet : -8.4931
   add alpha+bet to get absolut eigen values

 k-point   1 :       0.0000    0.0000    0.0000
  band No.  band energies     occupation
      1      -4.4546      2.00000
      2      -2.3590      2.00000
      3      -2.3560      2.00000
      4      -2.3560      2.00000
      5      -2.3560      2.00000
      6      -2.3560      2.00000
      7      -2.3531      2.00000
      8      -2.2266      2.00000
      9      -2.2266      2.00000
     10      -2.2266      2.00000
     11      -2.2266      2.00000
     12      -1.9761      2.00000
     13      -1.9761      2.00000
     14      -1.9761      2.00000
     15      -1.7564      2.00000
     16      -1.7564      2.00000
     17      -1.7564      2.00000
     18      -1.2577      2.00000
     19      -1.2564      2.00000
     20      -1.2564      2.00000
     21      -1.2549      2.00000
     22      -1.2547      2.00000
     23      -1.2547      2.00000
     24      -1.2547      2.00000
     25      -1.2547      2.00000
     26      -1.2545      2.00000
     27      -1.2530      2.00000
     28      -1.2530      2.00000
     29      -1.2517      2.00000
     30      -1.1201      2.00000
     31      -1.1183      2.00000
     32      -1.1183      2.00000
     33      -1.1183      2.00000
     34      -1.1183      2.00000
     35      -1.1166      2.00000
     36      -1.0548      2.00000
     37      -1.0530      2.00000
     38      -1.0530      2.00000
     39      -1.0530      2.00000
     40      -1.0530      2.00000
     41      -1.0513      2.00000
     42      -0.5979      2.00000
     43      -0.5958      2.00000
     44      -0.5958      2.00000
     45      -0.5947      2.00000
     46      -0.5947      2.00000
     47      -0.5947      2.00000
     48      -0.5947      2.00000
     49      -0.5947      2.00000
     50      -0.5947      2.00000
     51      -0.5937      2.00000
     52      -0.5937      2.00000
     53      -0.5917      2.00000
     54      -0.5403      2.00000
     55      -0.5403      2.00000
     56      -0.5383      2.00000
     57      -0.5383      2.00000
     58      -0.5383      2.00000
     59      -0.5383      2.00000
     60      -0.5383      2.00000
[...]
    198       8.1256      0.00000
    199       8.1256      0.00000
    200       9.4008      0.00000
    201       9.4008      0.00000
    202       9.4036      0.00000
    203       9.4036      0.00000
    204       9.4040      0.00000
    205       9.4040      0.00000
    206       9.4040      0.00000
    207       9.4041      0.00000
    208       9.4044      0.00000
    209       9.4044      0.00000
    210       9.4073      0.00000
    211       9.4073      0.00000
    212      11.2557      0.00000

[...]

 k-point 196 :       0.5000    0.5000    0.5000
  band No.  band energies     occupation
      1      -2.9042      2.00000
      2      -2.9012      2.00000
      3      -2.9012      2.00000
      4      -2.9007      2.00000
      5      -2.9004      2.00000
      6      -2.9000      2.00000
      7      -2.9000      2.00000
      8      -2.8970      2.00000
      9      -1.5326      2.00000
     10      -1.5326      2.00000
     11      -1.5326      2.00000
     12      -1.5324      2.00000
     13      -1.5321      2.00000
     14      -1.5312      2.00000
     15      -1.5306      2.00000
     16      -1.5306      2.00000
     17      -1.5306      2.00000
     18      -1.5305      2.00000
     19      -1.5305      2.00000
     20      -1.5304      2.00000
     21      -1.5303      2.00000
     22      -1.5303      2.00000
     23      -1.5303      2.00000
     24      -1.5302      2.00000
     25      -1.5302      2.00000
     26      -1.5302      2.00000
     27      -1.5296      2.00000
     28      -1.5287      2.00000
     29      -1.5284      2.00000
     30      -1.5283      2.00000
     31      -1.5283      2.00000
     32      -1.5282      2.00000
     33      -0.8145      2.00000
     34      -0.8114      2.00000
     35      -0.8113      2.00000
     36      -0.8110      2.00000
     37      -0.8110      2.00000
     38      -0.8105      2.00000
     39      -0.8102      2.00000
     40      -0.8102      2.00000
     41      -0.8100      2.00000
     42      -0.8100      2.00000
     43      -0.8100      2.00000
     44      -0.8099      2.00000
     45      -0.8099      2.00000
     46      -0.8099      2.00000
     47      -0.8099      2.00000
     48      -0.8098      2.00000
     49      -0.8097      2.00000
     50      -0.8097      2.00000
     51      -0.8093      2.00000
     52      -0.8088      2.00000
     53      -0.8088      2.00000
     54      -0.8086      2.00000
     55      -0.8084      2.00000
     56      -0.8053      2.00000
     57      -0.2796      2.00000
     58      -0.2783      2.00000
     59      -0.2778      2.00000
     60      -0.2778      2.00000
[...]
    198       8.5077      0.00000
    199       8.5079      0.00000
    200       8.5081      0.00000
    201       8.5082      0.00000
    202       8.5082      0.00000
    203       8.5083      0.00000
    204       8.5083      0.00000
    205       8.5084      0.00000
    206       8.5087      0.00000
    207       8.5088      0.00000
    208       8.5089      0.00000
    209       8.5092      0.00000
    210       8.5098      0.00000
    211       8.5104      0.00000
    212       8.5116      0.00000

 soft charge-density along one line, spin component           1
         0         1         2         3         4         5         6         7         8         9
 total charge-density along one line

------------------------ aborting loop because EDIFF is reached ----------------------------------------

  FREE ENERGIE OF THE ION-ELECTRON SYSTEM (eV)
  free  energy   TOTEN  =      -101.786508 eV

  energy  without entropy=     -101.785947  energy(sigma->0) =     -101.786227

  FORCE on cell =-STRESS in cart. coord.  units (eV/reduce length):
  Direction    X        Y        Z        XY       YZ       ZX
  Alpha Z   2932.97   2932.97   2932.97
  Ewald    -9817.54  -9817.51  -9817.51     -0.00     -0.00     -0.00
  Hartree   1467.60   1467.62   1467.62     -0.00     -0.00     -0.00
  E(xc)    -1576.19  -1576.19  -1576.19      0.00     -0.00      0.00
  Local     2362.41   2362.36   2362.36     -0.00      0.00      0.00
  n-local  -1673.46  -1679.58  -1667.35      3.28      2.48      1.69
  augment   1376.98   1376.98   1376.98     -0.00     -0.00     -0.00
  Kinetic   4881.49   4875.49   4887.50      0.51     -0.49     -1.50
  Total      -45.74    -45.74    -45.74      0.00      0.00      0.00
  in kB     -112.09   -112.09   -112.09      0.00      0.00      0.00

 VOLUME and BASIS-vectors are now :
  energy-cutoff  :      750.00
  volume of cell :      653.87
      direct lattice vectors                 reciprocal lattice vectors
     8.679531957  0.000000000  0.000000000     0.115213586  0.000000000  0.000000000
     0.000000000  8.679531957  0.000000000     0.000000000  0.115213586  0.000000000
     0.000000000  0.000000000  8.679531957     0.000000000  0.000000000  0.115213586

  length of vectors
     8.679531957  8.679531957  8.679531957     0.115213586  0.115213586  0.115213586

 FORCES acting on ions
    electron-ion (+dipol)            ewald-force                    non-local-force                 convergence-correction
   0.348E+01 0.388E-13 0.172E-07   -.346E+01 0.178E-13 -.817E-13   -.363E-01 0.603E-19 -.361E-19   -.285E-04 0.905E-13 -.114E-12
   -.904E+00 0.102E-12 -.175E-07   0.913E+00 -.284E-13 -.568E-13   -.595E-02 -.266E-20 0.837E-21   -.899E-05 0.572E-13 -.178E-12
   0.288E+00 -.357E-13 0.307E-11   -.289E+00 -.107E-13 -.462E-13   0.672E-03 0.228E-19 -.616E-21   0.645E-06 -.205E-12 -.706E-13
   -.233E+00 0.118E-11 0.290E-11   0.227E+00 -.142E-13 -.426E-13   0.345E-02 -.156E-20 0.858E-21   0.324E-05 -.160E-12 -.943E-13
   0.288E+00 0.444E-13 0.837E-11   -.289E+00 0.711E-14 -.355E-13   0.672E-03 -.792E-20 0.715E-20   0.981E-06 0.907E-13 -.286E-15
   -.233E+00 0.548E-13 0.948E-11   0.227E+00 0.000E+00 -.284E-13   0.345E-02 -.546E-21 0.565E-21   0.316E-05 0.577E-13 0.573E-13
   0.121E+00 -.420E-13 -.292E-13   -.119E+00 -.107E-13 0.178E-13   -.126E-02 -.121E-20 -.155E-20   -.328E-05 -.206E-12 -.532E-13
   -.112E+00 -.490E-11 0.132E-11   0.112E+00 -.426E-13 0.142E-13   -.193E-03 0.110E-19 -.198E-20   0.160E-05 -.161E-12 -.282E-13
   -.440E+00 -.841E+00 0.570E-11   0.439E+00 0.843E+00 -.391E-13   0.392E-02 0.195E-02 -.766E-20   0.474E-05 0.339E-05 -.146E-12
   -.442E+00 0.835E+00 -.859E-12   0.441E+00 -.837E+00 -.391E-13   0.382E-02 -.186E-02 0.282E-20   0.442E-05 -.190E-05 -.102E-12
   -.440E+00 0.841E+00 0.561E-11   0.439E+00 -.843E+00 -.568E-13   0.392E-02 -.195E-02 0.505E-20   0.474E-05 -.339E-05 -.119E-12
   -.442E+00 -.835E+00 0.115E-10   0.441E+00 0.837E+00 -.568E-13   0.382E-02 0.186E-02 0.317E-20   0.442E-05 0.190E-05 -.865E-13
   -.127E-01 -.694E-01 -.260E-11   0.134E-01 0.693E-01 -.746E-13   -.426E-03 0.823E-04 0.118E-20   -.168E-05 -.939E-06 0.277E-13
   -.140E-01 0.693E-01 -.159E-11   0.147E-01 -.692E-01 -.746E-13   -.426E-03 -.805E-04 -.398E-21   -.877E-06 -.180E-07 -.139E-13
   -.127E-01 0.694E-01 -.251E-11   0.134E-01 -.693E-01 0.000E+00   -.426E-03 -.823E-04 -.431E-21   -.168E-05 0.939E-06 -.917E-14
   -.140E-01 -.693E-01 -.141E-10   0.147E-01 0.692E-01 0.568E-13   -.426E-03 0.805E-04 -.496E-21   -.877E-06 0.180E-07 -.349E-13
   -.440E+00 0.412E-13 -.841E+00   0.439E+00 -.320E-13 0.843E+00   0.392E-02 -.227E-20 0.195E-02   0.466E-05 0.519E-13 0.345E-05
   -.442E+00 0.466E-13 0.835E+00   0.441E+00 -.320E-13 -.837E+00   0.382E-02 -.576E-20 -.186E-02   0.435E-05 0.736E-13 -.196E-05
   -.127E-01 0.651E-12 -.694E-01   0.134E-01 -.639E-13 0.693E-01   -.426E-03 0.111E-20 0.823E-04   -.166E-05 -.158E-12 -.874E-06
   -.140E-01 0.760E-11 0.693E-01   0.147E-01 -.639E-13 -.692E-01   -.426E-03 0.862E-21 -.805E-04   -.857E-06 -.183E-12 -.820E-07
   -.440E+00 0.746E-13 0.841E+00   0.439E+00 -.568E-13 -.843E+00   0.392E-02 -.129E-19 -.195E-02   0.466E-05 0.836E-13 -.345E-05
   -.442E+00 0.528E-13 -.835E+00   0.441E+00 -.568E-13 0.837E+00   0.382E-02 0.456E-20 0.186E-02   0.435E-05 0.916E-13 0.196E-05
   -.127E-01 0.779E-12 0.694E-01   0.134E-01 -.568E-13 -.693E-01   -.426E-03 0.402E-21 -.823E-04   -.166E-05 -.190E-12 0.874E-06
   -.140E-01 -.507E-11 -.693E-01   0.147E-01 -.284E-13 0.692E-01   -.426E-03 -.155E-20 0.805E-04   -.857E-06 -.201E-12 0.820E-07
   0.541E+00 0.197E-02 0.197E-02   -.545E+00 -.198E-02 -.198E-02   0.246E-02 0.547E-05 0.547E-05   0.976E-06 0.325E-06 0.324E-06
   -.306E+00 -.581E-03 -.581E-03   0.307E+00 0.592E-03 0.592E-03   -.487E-03 -.802E-05 -.802E-05   0.184E-06 -.135E-06 -.135E-06
   0.541E+00 -.197E-02 0.197E-02   -.545E+00 0.198E-02 -.198E-02   0.246E-02 -.547E-05 0.547E-05   0.976E-06 -.325E-06 0.324E-06
   -.306E+00 0.581E-03 -.581E-03   0.307E+00 -.592E-03 0.592E-03   -.487E-03 0.802E-05 -.802E-05   0.184E-06 0.135E-06 -.135E-06
   0.541E+00 0.197E-02 -.197E-02   -.545E+00 -.198E-02 0.198E-02   0.246E-02 0.547E-05 -.547E-05   0.976E-06 0.325E-06 -.324E-06
   -.306E+00 -.581E-03 0.581E-03   0.307E+00 0.592E-03 -.592E-03   -.487E-03 -.802E-05 0.802E-05   0.184E-06 -.135E-06 0.135E-06
   0.541E+00 -.197E-02 -.197E-02   -.545E+00 0.198E-02 0.198E-02   0.246E-02 -.547E-05 -.547E-05   0.976E-06 -.325E-06 -.324E-06
   -.306E+00 0.581E-03 0.581E-03   0.307E+00 -.592E-03 -.592E-03   -.487E-03 0.802E-05 0.802E-05   0.184E-06 0.135E-06 0.135E-06
   -.166E-05 0.379E-11 -.106E-09   0.131E-13 0.237E-13 -.145E-12   0.240E-05 0.202E-18 -.266E-18   -.311E-06 -.391E-12 -.573E-12

 POSITION                                       TOTAL-FORCE (eV/Angst)
      0.01000      0.00000      0.00000        -0.019145      0.000000      0.000000
      4.33977      0.00000      0.00000         0.003724      0.000000     -0.000000
      0.00000      4.33977      0.00000        -0.000553     -0.000000     -0.000000
      4.33977      4.33977      0.00000        -0.001984      0.000000     -0.000000
      0.00000      0.00000      4.33977        -0.000553     -0.000000      0.000000
      4.33977      0.00000      4.33977        -0.001984     -0.000000     -0.000000
      0.00000      4.33977      4.33977         0.000323     -0.000000     -0.000000
      4.33977      4.33977      4.33977        -0.000165     -0.000000     -0.000000
      2.16988      2.16988      0.00000         0.003025      0.004117      0.000000
      6.50965      2.16988      0.00000         0.002873     -0.003913      0.000000
      2.16988      6.50965      0.00000         0.003025     -0.004117      0.000000
      6.50965      6.50965      0.00000         0.002873      0.003913      0.000000
      2.16988      2.16988      4.33977         0.000256      0.000029     -0.000000
      6.50965      2.16988      4.33977         0.000255     -0.000027      0.000000
      2.16988      6.50965      4.33977         0.000256     -0.000029      0.000000
      6.50965      6.50965      4.33977         0.000255      0.000027      0.000000
      2.16988      0.00000      2.16988         0.003025      0.000000      0.004117
      6.50965      0.00000      2.16988         0.002873     -0.000000     -0.003913
      2.16988      4.33977      2.16988         0.000256     -0.000000      0.000029
      6.50965      4.33977      2.16988         0.000255     -0.000000     -0.000027
      2.16988      0.00000      6.50965         0.003025      0.000000     -0.004117
      6.50965      0.00000      6.50965         0.002873     -0.000000      0.003913
      2.16988      4.33977      6.50965         0.000256      0.000000     -0.000029
      6.50965      4.33977      6.50965         0.000255     -0.000000      0.000027
      0.00000      2.16988      2.16988        -0.002038      0.000002      0.000002
      4.33977      2.16988      2.16988         0.000712      0.000003      0.000003
      0.00000      6.50965      2.16988        -0.002038     -0.000002      0.000002
      4.33977      6.50965      2.16988         0.000712     -0.000003      0.000003
      0.00000      2.16988      6.50965        -0.002038      0.000002     -0.000002
      4.33977      2.16988      6.50965         0.000712      0.000003     -0.000003
      0.00000      6.50965      6.50965        -0.002038     -0.000002     -0.000002
      4.33977      6.50965      6.50965         0.000712     -0.000003     -0.000003
    total drift:                                0.000000      0.000000     -0.000000

 mean value of Nose-termostat <S>:     1.000 mean value of <T> :     0.000
 mean temperature <T/S>/<1/S>  :     0.000