 vasp.4.6.28 25Jul05 complex
 executed on             LinuxIFC date 2016.10.19  17:40:43

 INCAR:
 POTCAR:   PAW_PBE Al 04Jan2001
 POTCAR:   PAW_PBE Al 04Jan2001
   VRHFIN =Al: s2p1

   TITEL  = PAW_PBE Al 04Jan2001
   POMASS =   26.982; ZVAL   =    3.000    mass and valenz
   ENMAX  =  240.300; ENMIN  =  180.225 eV
   QCUT   =   -4.203; QGAM   =    8.405    optimization parameters

   Description
     l     E      TYP  RCUT    TYP  RCUT
     0   .000     23  1.900
     0   .000     23  1.900
     1   .000     23  1.900
     1  1.000     23  1.900
     2   .000      7  1.900

 PAW_PBE Al 04Jan2001                   :

 POSCAR: Al
  positions in direct lattice

 ion  position               nearest neighbor table
   1  0.500  0.500  0.000-   2 2.91   3 2.91   4 2.91   2 2.91   3 2.91   2 2.91   4 2.91   2 2.91
                             3 2.91   4 2.91   3 2.91   4 2.91
   2  0.500  0.000  0.500-   1 2.91   3 2.91   4 2.91   1 2.91   4 2.91   1 2.91   3 2.91   1 2.91
                             3 2.91   4 2.91   4 2.91   3 2.91
   3  0.000  0.500  0.500-   1 2.91   2 2.91   4 2.91   1 2.91   4 2.91   2 2.91   4 2.91   4 2.91
                             1 2.91   2 2.91   1 2.91   2 2.91
   4  0.000  0.000  0.000-   1 2.91   2 2.91   3 2.91   2 2.91   3 2.91   1 2.91   3 2.91   3 2.91
                             1 2.91   2 2.91   2 2.91   1 2.91

  LATTYP: Found a simple cubic cell.
 ALAT       =     4.1180524971

  Lattice vectors:

 A1 = (   4.1180524971,   0.0000000000,   0.0000000000)
 A2 = (   0.0000000000,   4.1180524971,   0.0000000000)
 A3 = (   0.0000000000,   0.0000000000,   4.1180524971)
 Subroutine PRICEL returns following result:

  LATTYP: Found a face centered cubic cell.
 ALAT       =     4.1180524971

  Lattice vectors:

 A1 = (   2.0590262485,   2.0590262485,   0.0000000000)
 A2 = (   2.0590262485,   0.0000000000,  -2.0590262485)
 A3 = (   0.0000000000,   2.0590262485,  -2.0590262485)

   4 primitive cells build up your supercell.

Analysis of symmetry for initial positions (statically):

 Routine SETGRP: Setting up the symmetry group for a
 simple cubic supercell.

 Subroutine GETGRP returns: Found 48 space group operations
 (whereof 48 operations were pure point group operations)
 out of a pool of 48 trial point group operations.

The static configuration has the point symmetry O_h .

Analysis of symmetry for dynamics (positions and initial velocities):

 Subroutine DYNSYM returns: Found 48 space group operations
 (whereof 48 operations were pure point group operations)
 out of a pool of 48 trial space group operations
 (whereof 48 operations were pure point group operations)
 and found also     4 'primitive' translations

The dynamic configuration has the point symmetry O_h .

 KPOINTS: Automatic mesh

Automatic generation of k-mesh.
 generate k-points for:  12  12  12

 Subroutine IBZKPT returns following result:

 Found     84 irreducible k-points:

 Following reciprocal coordinates:
            Coordinates               Weight
  0.000000  0.000000  0.000000      1.000000
  0.083333  0.000000  0.000000      6.000000
  0.166667  0.000000  0.000000      6.000000
  0.250000  0.000000  0.000000      6.000000
  0.333333  0.000000  0.000000      6.000000
  0.416667  0.000000  0.000000      6.000000
  0.500000  0.000000  0.000000      3.000000
  0.083333  0.083333  0.000000     12.000000
  0.166667  0.083333  0.000000     24.000000
  0.250000  0.083333  0.000000     24.000000
  0.333333  0.083333  0.000000     24.000000
  0.416667  0.083333  0.000000     24.000000
  0.500000  0.083333  0.000000     12.000000
  0.166667  0.166667  0.000000     12.000000
  0.250000  0.166667  0.000000     24.000000
  0.333333  0.166667  0.000000     24.000000
  0.416667  0.166667  0.000000     24.000000
  0.500000  0.166667  0.000000     12.000000
  0.250000  0.250000  0.000000     12.000000
  0.333333  0.250000  0.000000     24.000000
  0.416667  0.250000  0.000000     24.000000
  0.500000  0.250000  0.000000     12.000000
  0.333333  0.333333  0.000000     12.000000
  0.416667  0.333333  0.000000     24.000000
  0.500000  0.333333  0.000000     12.000000
  0.416667  0.416667  0.000000     12.000000
  0.500000  0.416667  0.000000     12.000000
  0.500000  0.500000  0.000000      3.000000
  0.083333  0.083333  0.083333      8.000000
  0.166667  0.083333  0.083333     24.000000
  0.250000  0.083333  0.083333     24.000000
  0.333333  0.083333  0.083333     24.000000
  0.416667  0.083333  0.083333     24.000000
  0.500000  0.083333  0.083333     12.000000
  0.166667  0.166667  0.083333     24.000000
  0.250000  0.166667  0.083333     48.000000
  0.333333  0.166667  0.083333     48.000000
  0.416667  0.166667  0.083333     48.000000
  0.500000  0.166667  0.083333     24.000000
  0.250000  0.250000  0.083333     24.000000
  0.333333  0.250000  0.083333     48.000000
  0.416667  0.250000  0.083333     48.000000
  0.500000  0.250000  0.083333     24.000000
  0.333333  0.333333  0.083333     24.000000
  0.416667  0.333333  0.083333     48.000000
  0.500000  0.333333  0.083333     24.000000
  0.416667  0.416667  0.083333     24.000000
  0.500000  0.416667  0.083333     24.000000
  0.500000  0.500000  0.083333      6.000000
  0.166667  0.166667  0.166667      8.000000
  0.250000  0.166667  0.166667     24.000000
  0.333333  0.166667  0.166667     24.000000
  0.416667  0.166667  0.166667     24.000000
  0.500000  0.166667  0.166667     12.000000
  0.250000  0.250000  0.166667     24.000000
  0.333333  0.250000  0.166667     48.000000
  0.416667  0.250000  0.166667     48.000000
  0.500000  0.250000  0.166667     24.000000
  0.333333  0.333333  0.166667     24.000000
  0.416667  0.333333  0.166667     48.000000
[...]
  0.416667  0.333333  0.250000     48.000000
  0.500000  0.333333  0.250000     24.000000
  0.416667  0.416667  0.250000     24.000000
  0.500000  0.416667  0.250000     24.000000
  0.500000  0.500000  0.250000      6.000000
  0.333333  0.333333  0.333333      8.000000
  0.416667  0.333333  0.333333     24.000000
  0.500000  0.333333  0.333333     12.000000
  0.416667  0.416667  0.333333     24.000000
  0.500000  0.416667  0.333333     24.000000
  0.500000  0.500000  0.333333      6.000000
  0.416667  0.416667  0.416667      8.000000
  0.500000  0.416667  0.416667     12.000000
  0.500000  0.500000  0.416667      6.000000
  0.500000  0.500000  0.500000      1.000000

 Following cartesian coordinates:
            Coordinates               Weight
  0.000000  0.000000  0.000000      1.000000
  0.020641  0.000000  0.000000      6.000000
  0.041282  0.000000  0.000000      6.000000
  0.061922  0.000000  0.000000      6.000000
  0.082563  0.000000  0.000000      6.000000
  0.103204  0.000000  0.000000      6.000000
  0.123845  0.000000  0.000000      3.000000
  0.020641  0.020641  0.000000     12.000000
  0.041282  0.020641  0.000000     24.000000
  0.061922  0.020641  0.000000     24.000000
  0.082563  0.020641  0.000000     24.000000
  0.103204  0.020641  0.000000     24.000000
  0.123845  0.020641  0.000000     12.000000
  0.041282  0.041282  0.000000     12.000000
  0.061922  0.041282  0.000000     24.000000
  0.082563  0.041282  0.000000     24.000000
  0.103204  0.041282  0.000000     24.000000
  0.123845  0.041282  0.000000     12.000000
  0.061922  0.061922  0.000000     12.000000
  0.082563  0.061922  0.000000     24.000000
  0.103204  0.061922  0.000000     24.000000
  0.123845  0.061922  0.000000     12.000000
  0.082563  0.082563  0.000000     12.000000
  0.103204  0.082563  0.000000     24.000000
  0.123845  0.082563  0.000000     12.000000
  0.103204  0.103204  0.000000     12.000000
  0.123845  0.103204  0.000000     12.000000
  0.123845  0.123845  0.000000      3.000000
  0.020641  0.020641  0.020641      8.000000
  0.041282  0.020641  0.020641     24.000000
  0.061922  0.020641  0.020641     24.000000
  0.082563  0.020641  0.020641     24.000000
  0.103204  0.020641  0.020641     24.000000
  0.123845  0.020641  0.020641     12.000000
  0.041282  0.041282  0.020641     24.000000
  0.061922  0.041282  0.020641     48.000000
  0.082563  0.041282  0.020641     48.000000
  0.103204  0.041282  0.020641     48.000000
  0.123845  0.041282  0.020641     24.000000
  0.061922  0.061922  0.020641     24.000000
  0.082563  0.061922  0.020641     48.000000
  0.103204  0.061922  0.020641     48.000000
  0.123845  0.061922  0.020641     24.000000
  0.082563  0.082563  0.020641     24.000000
  0.103204  0.082563  0.020641     48.000000
  0.123845  0.082563  0.020641     24.000000
  0.103204  0.103204  0.020641     24.000000
  0.123845  0.103204  0.020641     24.000000
  0.123845  0.123845  0.020641      6.000000
  0.041282  0.041282  0.041282      8.000000
  0.061922  0.041282  0.041282     24.000000
  0.082563  0.041282  0.041282     24.000000
  0.103204  0.041282  0.041282     24.000000
  0.123845  0.041282  0.041282     12.000000
  0.061922  0.061922  0.041282     24.000000
  0.082563  0.061922  0.041282     48.000000
  0.103204  0.061922  0.041282     48.000000
  0.123845  0.061922  0.041282     24.000000
  0.082563  0.082563  0.041282     24.000000
  0.103204  0.082563  0.041282     48.000000
[...]
  0.103204  0.082563  0.061922     48.000000
  0.123845  0.082563  0.061922     24.000000
  0.103204  0.103204  0.061922     24.000000
  0.123845  0.103204  0.061922     24.000000
  0.123845  0.123845  0.061922      6.000000
  0.082563  0.082563  0.082563      8.000000
  0.103204  0.082563  0.082563     24.000000
  0.123845  0.082563  0.082563     12.000000
  0.103204  0.103204  0.082563     24.000000
  0.123845  0.103204  0.082563     24.000000
  0.123845  0.123845  0.082563      6.000000
  0.103204  0.103204  0.103204      8.000000
  0.123845  0.103204  0.103204     12.000000
  0.123845  0.123845  0.103204      6.000000
  0.123845  0.123845  0.123845      1.000000

 I would recommend the setting:
   dimension x,y,z NGX =    30 NGY =   30 NGZ =   30
 SYSTEM =  unknown system
 POSCAR =  Al

 Startparameter for this run:
   NWRITE =      2    write-flag & timer
   PREC   = accura    medium, high low
   ISTART =      0    job   : 0-new  1-cont  2-samecut
   ICHARG =      2    charge: 1-file 2-atom 10-const
   ISPIN  =      1    spin polarized calculation?
   LNONCOLLINEAR =      F non collinear calculations
   LSORBIT =      F    spin-orbit coupling
   INIWAV =      1    electr: 0-lowe 1-rand  2-diag
   LASPH  =      F    aspherical Exc in radial PAW
   METAGGA=      F    non-selfconsistent MetaGGA calc.

 Electronic Relaxation 1
   ENCUT  =  500.0 eV  36.75 Ry    6.06 a.u.   7.51  7.51  7.51*2*pi/ulx,y,z
   ENINI  =  500.0     initial cutoff
   ENAUG  =  291.1 eV  augmentation charge cutoff
   NELM   =     60;   NELMIN=  2; NELMDL=  0     # of ELM steps
   EDIFF  = 0.1E-07   stopping-criterion for ELM
   LREAL  =      F    real-space projection
   LCOMPAT=      F    compatible to vasp.4.4
   LREAL_COMPAT= F    compatible to vasp.4.5.1-3
   GGA_COMPAT  = T    GGA compatible to vasp.4.4-vasp.4.6
   LMAXPAW     = -100 max onsite density
   LMAXMIX     =    2 max onsite mixed and CHGCAR
   VOSKOWN=      0    Vosko Wilk Nusair interpolation
   ROPT   =    0.00000
 Ionic relaxation
[...]
   0.16666667  0.00000000  0.00000000       0.003
   0.25000000  0.00000000  0.00000000       0.003
   0.33333333  0.00000000  0.00000000       0.003
   0.41666667  0.00000000  0.00000000       0.003
   0.50000000  0.00000000  0.00000000       0.002
   0.08333333  0.08333333  0.00000000       0.007
   0.16666667  0.08333333  0.00000000       0.014
   0.25000000  0.08333333  0.00000000       0.014
   0.33333333  0.08333333  0.00000000       0.014
   0.41666667  0.08333333  0.00000000       0.014
   0.50000000  0.08333333  0.00000000       0.007
   0.16666667  0.16666667  0.00000000       0.007
   0.25000000  0.16666667  0.00000000       0.014
   0.33333333  0.16666667  0.00000000       0.014
   0.41666667  0.16666667  0.00000000       0.014
   0.50000000  0.16666667  0.00000000       0.007
   0.25000000  0.25000000  0.00000000       0.007
   0.33333333  0.25000000  0.00000000       0.014
   0.41666667  0.25000000  0.00000000       0.014
   0.50000000  0.25000000  0.00000000       0.007
   0.33333333  0.33333333  0.00000000       0.007
   0.41666667  0.33333333  0.00000000       0.014
   0.50000000  0.33333333  0.00000000       0.007
   0.41666667  0.41666667  0.00000000       0.007
   0.50000000  0.41666667  0.00000000       0.007
   0.50000000  0.50000000  0.00000000       0.002
   0.08333333  0.08333333  0.08333333       0.005
   0.16666667  0.08333333  0.08333333       0.014
   0.25000000  0.08333333  0.08333333       0.014
   0.33333333  0.08333333  0.08333333       0.014
   0.41666667  0.08333333  0.08333333       0.014
   0.50000000  0.08333333  0.08333333       0.007
   0.16666667  0.16666667  0.08333333       0.014
   0.25000000  0.16666667  0.08333333       0.028
   0.33333333  0.16666667  0.08333333       0.028
   0.41666667  0.16666667  0.08333333       0.028
   0.50000000  0.16666667  0.08333333       0.014
   0.25000000  0.25000000  0.08333333       0.014
   0.33333333  0.25000000  0.08333333       0.028
   0.41666667  0.25000000  0.08333333       0.028
   0.50000000  0.25000000  0.08333333       0.014
   0.33333333  0.33333333  0.08333333       0.014
   0.41666667  0.33333333  0.08333333       0.028
   0.50000000  0.33333333  0.08333333       0.014
   0.41666667  0.41666667  0.08333333       0.014
   0.50000000  0.41666667  0.08333333       0.014
   0.50000000  0.50000000  0.08333333       0.003
   0.16666667  0.16666667  0.16666667       0.005
   0.25000000  0.16666667  0.16666667       0.014
   0.33333333  0.16666667  0.16666667       0.014
   0.41666667  0.16666667  0.16666667       0.014
   0.50000000  0.16666667  0.16666667       0.007
   0.25000000  0.25000000  0.16666667       0.014
   0.33333333  0.25000000  0.16666667       0.028
   0.41666667  0.25000000  0.16666667       0.028
   0.50000000  0.25000000  0.16666667       0.014
   0.33333333  0.33333333  0.16666667       0.014
   0.41666667  0.33333333  0.16666667       0.028
[...]
   0.41666667  0.33333333  0.25000000       0.028
   0.50000000  0.33333333  0.25000000       0.014
   0.41666667  0.41666667  0.25000000       0.014
   0.50000000  0.41666667  0.25000000       0.014
   0.50000000  0.50000000  0.25000000       0.003
   0.33333333  0.33333333  0.33333333       0.005
   0.41666667  0.33333333  0.33333333       0.014
   0.50000000  0.33333333  0.33333333       0.007
   0.41666667  0.41666667  0.33333333       0.014
   0.50000000  0.41666667  0.33333333       0.014
   0.50000000  0.50000000  0.33333333       0.003
   0.41666667  0.41666667  0.41666667       0.005
   0.50000000  0.41666667  0.41666667       0.007
   0.50000000  0.50000000  0.41666667       0.003
   0.50000000  0.50000000  0.50000000       0.001

 position of ions in fractional coordinates (direct lattice)
   0.50000000  0.50000000  0.00000000
   0.50000000  0.00000000  0.50000000
   0.00000000  0.50000000  0.50000000
   0.00000000  0.00000000  0.00000000

 position of ions in cartesian coordinates  (Angst):
   2.05902625  2.05902625  0.00000000
   2.05902625  0.00000000  2.05902625
   0.00000000  2.05902625  2.05902625
   0.00000000  0.00000000  0.00000000

 k-point  1 :  0.00000.00000.0000  plane waves:   1791
 k-point  2 :  0.08330.00000.0000  plane waves:   1791
 k-point  3 :  0.16670.00000.0000  plane waves:   1795
 k-point  4 :  0.25000.00000.0000  plane waves:   1779
 k-point  5 :  0.33330.00000.0000  plane waves:   1783
 k-point  6 :  0.41670.00000.0000  plane waves:   1779
 k-point  7 :  0.50000.00000.0000  plane waves:   1800
 k-point  8 :  0.08330.08330.0000  plane waves:   1793
 k-point  9 :  0.16670.08330.0000  plane waves:   1790
 k-point 10 :  0.25000.08330.0000  plane waves:   1783
 k-point 11 :  0.33330.08330.0000  plane waves:   1774
 k-point 12 :  0.41670.08330.0000  plane waves:   1777
 k-point 13 :  0.50000.08330.0000  plane waves:   1780
 k-point 14 :  0.16670.16670.0000  plane waves:   1773
 k-point 15 :  0.25000.16670.0000  plane waves:   1775
 k-point 16 :  0.33330.16670.0000  plane waves:   1781
 k-point 17 :  0.41670.16670.0000  plane waves:   1781
 k-point 18 :  0.50000.16670.0000  plane waves:   1786
 k-point 19 :  0.25000.25000.0000  plane waves:   1771
 k-point 20 :  0.33330.25000.0000  plane waves:   1779
 k-point 21 :  0.41670.25000.0000  plane waves:   1773
 k-point 22 :  0.50000.25000.0000  plane waves:   1776
 k-point 23 :  0.33330.33330.0000  plane waves:   1774
 k-point 24 :  0.41670.33330.0000  plane waves:   1768
 k-point 25 :  0.50000.33330.0000  plane waves:   1772
 k-point 26 :  0.41670.41670.0000  plane waves:   1766
 k-point 27 :  0.50000.41670.0000  plane waves:   1746
 k-point 28 :  0.50000.50000.0000  plane waves:   1740
 k-point 29 :  0.08330.08330.0833  plane waves:   1797
 k-point 30 :  0.16670.08330.0833  plane waves:   1788
 k-point 31 :  0.25000.08330.0833  plane waves:   1780
 k-point 32 :  0.33330.08330.0833  plane waves:   1773
 k-point 33 :  0.41670.08330.0833  plane waves:   1779
 k-point 34 :  0.50000.08330.0833  plane waves:   1774
 k-point 35 :  0.16670.16670.0833  plane waves:   1785
 k-point 36 :  0.25000.16670.0833  plane waves:   1773
 k-point 37 :  0.33330.16670.0833  plane waves:   1783
 k-point 38 :  0.41670.16670.0833  plane waves:   1773
 k-point 39 :  0.50000.16670.0833  plane waves:   1770
 k-point 40 :  0.25000.25000.0833  plane waves:   1780
 k-point 41 :  0.33330.25000.0833  plane waves:   1786
 k-point 42 :  0.41670.25000.0833  plane waves:   1773
 k-point 43 :  0.50000.25000.0833  plane waves:   1768
 k-point 44 :  0.33330.33330.0833  plane waves:   1772
 k-point 45 :  0.41670.33330.0833  plane waves:   1767
 k-point 46 :  0.50000.33330.0833  plane waves:   1762
 k-point 47 :  0.41670.41670.0833  plane waves:   1762
 k-point 48 :  0.50000.41670.0833  plane waves:   1752
 k-point 49 :  0.50000.50000.0833  plane waves:   1752
 k-point 50 :  0.16670.16670.1667  plane waves:   1791
 k-point 51 :  0.25000.16670.1667  plane waves:   1776
 k-point 52 :  0.33330.16670.1667  plane waves:   1774
 k-point 53 :  0.41670.16670.1667  plane waves:   1769
 k-point 54 :  0.50000.16670.1667  plane waves:   1774
 k-point 55 :  0.25000.25000.1667  plane waves:   1774
 k-point 56 :  0.33330.25000.1667  plane waves:   1781
 k-point 57 :  0.41670.25000.1667  plane waves:   1765
 k-point 58 :  0.50000.25000.1667  plane waves:   1766
 k-point 59 :  0.33330.33330.1667  plane waves:   1774
 k-point 60 :  0.41670.33330.1667  plane waves:   1772
[...]
 k-point 70 :  0.41670.33330.2500  plane waves:   1771
 k-point 71 :  0.50000.33330.2500  plane waves:   1758
 k-point 72 :  0.41670.41670.2500  plane waves:   1764
 k-point 73 :  0.50000.41670.2500  plane waves:   1764
 k-point 74 :  0.50000.50000.2500  plane waves:   1764
 k-point 75 :  0.33330.33330.3333  plane waves:   1770
 k-point 76 :  0.41670.33330.3333  plane waves:   1767
 k-point 77 :  0.50000.33330.3333  plane waves:   1772
 k-point 78 :  0.41670.41670.3333  plane waves:   1770
 k-point 79 :  0.50000.41670.3333  plane waves:   1770
 k-point 80 :  0.50000.50000.3333  plane waves:   1780
 k-point 81 :  0.41670.41670.4167  plane waves:   1772
 k-point 82 :  0.50000.41670.4167  plane waves:   1776
 k-point 83 :  0.50000.50000.4167  plane waves:   1780
 k-point 84 :  0.50000.50000.5000  plane waves:   1736

 maximum and minimum number of plane-waves per node :   1800  1736

 maximum number of plane-waves:   1800
 maximal index in each direction:
   IXMAX=  7   IYMAX=  7   IZMAX=  7
   IXMIN= -8   IYMIN= -7   IZMIN= -7

 WARNING: wrap around error must be expected set NGX to  32
 NGY is ok and might be reduce to  30
 NGZ is ok and might be reduce to  30

 parallel 3dFFT wavefunction:
    minimum data exchange during FFTs selected (reduces bandwidth)
 parallel 3dFFT charge:
    minimum data exchange during FFTs selected (reduces bandwidth)

Broyden mixing: mesh for mixing (old mesh)
   NGX = 15   NGY = 15   NGZ = 15
  (NGX  = 60   NGY  = 60   NGZ  = 60)
 gives a total of   3375 points
 initial charge density was supplied:
 charge density of overlapping atoms calculated
 number of electron   12.0000000 magnetization
 keeping initial charge density in first step

 Maximum index for augmentation-charges         2192 (set IRDMAX)

 First call to EWALD:  gamma=   0.430
 Maximum number of real-space cells 3x 3x 3
 Maximum number of reciprocal cells 3x 3x 3

----------------------------------------- Iteration    1(   1)  ---------------------------------------

 eigenvalue-minimisations  :  2688
 total energy-change (2. order) : 0.4587395E+01  (-0.3922892E+03)
 number of electron   12.0000000 magnetization
 augmentation part    12.0000000 magnetization

 Free energy of the ion-electron system (eV)
  alpha Z        PSCENC =        -0.76953795
  Ewald energy   TEWEN  =      -288.57784073
  -1/2 Hartree   DENC   =        -0.50369350
  -V(xc)+E(xc)   XCENC  =      -105.36127907
  PAW double counting   =       142.21701965      -14.39593217
  entropy T*S    EENTRO =        -0.00032239
  eigenvalues    EBANDS =        57.82533994
  atomic energy  EATOM  =       214.15364153
  free energy    TOTEN  =         4.58739532 eV

  energy without entropy =        4.58771770  energy(sigma->0) =        4.58755651

[...]

 eigenvalue-minimisations  :  3616
 total energy-change (2. order) :-0.1898841E+02  (-0.1780513E+02)
 number of electron   12.0000000 magnetization
 augmentation part    12.0000000 magnetization

[...]

 Broyden mixing:
  rms(total) = 0.18141E+00    rms(broyden)= 0.18141E+00
  rms(prec ) = 0.42399E+00
  weight for this iteration     100.00

[...]

 eigenvalues of (default mixing * dielectric matrix)
  average eigenvalue GAMMA=   2.6261
  2.6261

[...]

 eigenvalue-minimisations  :  2472
 total energy-change (2. order) : 0.1576433E-06  (-0.1264218E-09)
 number of electron   11.9999999 magnetization
 augmentation part    -0.1609813 magnetization

[...]

 Broyden mixing:
  rms(total) = 0.79438E-06    rms(broyden)= 0.79432E-06
  rms(prec ) = 0.14286E-05
  weight for this iteration     100.00

 eigenvalues of (default mixing * dielectric matrix)
  average eigenvalue GAMMA=   1.9029
  2.6653  2.6653  2.6417  2.4408  0.9971  0.9971  0.9135

[...]

----------------------------------------- Iteration    1(  13)  ---------------------------------------

 eigenvalue-minimisations  :  1776
 total energy-change (2. order) :-0.1558135E-08  (-0.3488069E-11)
 number of electron   11.9999999 magnetization
 augmentation part    -0.1609812 magnetization

 Free energy of the ion-electron system (eV)
  alpha Z        PSCENC =        -0.76953795
  Ewald energy   TEWEN  =      -288.57784073
  -1/2 Hartree   DENC   =        -0.39076247
  -V(xc)+E(xc)   XCENC  =      -104.97555373
  PAW double counting   =       142.03907929      -14.23497014
  entropy T*S    EENTRO =        -0.00025961
  eigenvalues    EBANDS =        37.83612743
  atomic energy  EATOM  =       214.15364153
  free energy    TOTEN  =       -14.92007639 eV

  energy without entropy =      -14.91981678  energy(sigma->0) =      -14.91994659

 average (electrostatic) potential at core
  the test charge radii are     1.0406
  (the norm of the test charge is              1.0000)
       1 -73.2836       2 -73.2836       3 -73.2836       4 -73.2836

 E-fermi :   7.4334     XC(G=0):  -9.9943     alpha+bet :-14.0593
   add alpha+bet to get absolut eigen values

 k-point   1 :       0.0000    0.0000    0.0000
  band No.  band energies     occupation
      1      -3.3269      2.00000
      2       4.6356      2.00000
      3       4.6356      2.00000
      4       4.6356      2.00000
      5       5.8260      2.00000
      6       5.8260      2.00000
      7       5.8260      2.00000
      8      12.6660      0.00000
      9      12.6660      0.00000
     10      12.6660      0.00000
     11      12.7605      0.00000
     12      12.7605      0.00000
     13      12.7605      0.00000
     14      12.7605      0.00000
     15      12.7605      0.00000
     16      12.7605      0.00000

[...]

 k-point  84 :       0.5000    0.5000    0.5000
  band No.  band energies     occupation
      1       3.0534      2.00000
      2       3.0534      2.00000
      3       3.0534      2.00000
      4       3.0534      2.00000
      5       3.1170      2.00000
      6       3.1170      2.00000
      7       3.1170      2.00000
      8       3.1170      2.00000
      9      18.2450      0.00000
     10      18.2450      0.00000
     11      18.2450      0.00000
     12      18.2450      0.00000
     13      18.2450      0.00000
     14      18.2450      0.00000
     15      18.2450      0.00000
     16      18.2458      0.00000

 soft charge-density along one line, spin component           1
         0         1         2         3         4         5         6         7         8         9
 total charge-density along one line

------------------------ aborting loop because EDIFF is reached ----------------------------------------

  FREE ENERGIE OF THE ION-ELECTRON SYSTEM (eV)
  free  energy   TOTEN  =       -14.920076 eV

  energy  without entropy=      -14.919817  energy(sigma->0) =      -14.919947

  FORCE on cell =-STRESS in cart. coord.  units (eV/reduce length):
  Direction    X        Y        Z        XY       YZ       ZX
  Alpha Z     -0.77     -0.77     -0.77
  Ewald      -96.19    -96.19    -96.19     -0.00     -0.00     -0.00
  Hartree      0.13      0.13      0.13     -0.00     -0.00     -0.00
  E(xc)      -33.67    -33.67    -33.67      0.00      0.00     -0.00
  Local        0.38      0.38      0.38      0.00     -0.00     -0.00
  n-local     73.87     74.50     76.07      0.12      0.73      0.30
  augment     -4.30     -4.30     -4.30      0.00      0.00      0.00
  Kinetic     55.03     58.10     60.64      1.85     -7.69     -1.89
  Total       -1.68     -1.68     -1.68      0.00      0.00     -0.00
  in kB      -38.58    -38.58    -38.58      0.00      0.00     -0.00

 VOLUME and BASIS-vectors are now :
  energy-cutoff  :      500.00
  volume of cell :       69.84
      direct lattice vectors                 reciprocal lattice vectors
     4.118052497  0.000000000  0.000000000     0.242833233  0.000000000  0.000000000
     0.000000000  4.118052497  0.000000000     0.000000000  0.242833233  0.000000000
     0.000000000  0.000000000  4.118052497     0.000000000  0.000000000  0.242833233

  length of vectors
     4.118052497  4.118052497  4.118052497     0.242833233  0.242833233  0.242833233

 FORCES acting on ions
    electron-ion (+dipol)            ewald-force                    non-local-force                 convergence-correction
   -.178E-14 -.584E-14 -.193E-13   0.164E-14 0.703E-15 0.561E-16   0.162E-26 -.162E-25 0.132E-25   0.707E-15 -.411E-16 0.126E-15
   -.298E-14 0.134E-14 0.205E-13   0.160E-14 -.845E-15 0.364E-15   0.194E-25 -.646E-26 -.364E-26   0.714E-15 0.426E-16 -.130E-15
   -.132E-14 -.227E-14 -.139E-14   -.164E-14 0.776E-15 0.371E-15   0.129E-25 -.646E-26 -.646E-26   -.716E-15 -.495E-16 -.128E-15
   -.118E-14 -.790E-15 -.226E-15   -.167E-14 -.771E-15 -.612E-15   0.323E-26 0.969E-26 0.323E-26   -.728E-15 0.481E-16 0.127E-15
   -.726E-14 -.756E-14 -.452E-15   -.635E-16 -.137E-15 0.179E-15   0.372E-25 -.194E-25 0.637E-26   -.227E-16 0.190E-19 -.401E-17

 POSITION                                       TOTAL-FORCE (eV/Angst)
      2.05903      2.05903      0.00000        -0.000000      0.000000      0.000000
      2.05903      0.00000      2.05903         0.000000     -0.000000      0.000000
      0.00000      2.05903      2.05903         0.000000     -0.000000     -0.000000
      0.00000      0.00000      0.00000         0.000000     -0.000000      0.000000
    total drift:                               -0.000000     -0.000000     -0.000000

 mean value of Nose-termostat <S>:     1.000 mean value of <T> :     0.000
 mean temperature <T/S>/<1/S>  :     0.000