 vasp.4.6.28 25Jul05 complex
 executed on             LinuxIFC date 2017.01.10  08:49:28

 INCAR:
 POTCAR:   PAW_PBE Ag 06Sep2000
 POTCAR:   PAW_PBE Ag 06Sep2000
   VRHFIN =Ag : s1 d10

   TITEL  = PAW_PBE Ag 06Sep2000
   POMASS =  107.868; ZVAL   =   11.000    mass and valenz
   ENMAX  =  249.846; ENMIN  =  187.385 eV
   QCUT   =   -4.285; QGAM   =    8.570    optimization parameters

   Description
     l     E      TYP  RCUT    TYP  RCUT
     2   .000     23  2.400
     2   .000     23  2.400
     0   .000     23  2.400
     0   .000     23  2.400
     1  -.200     23  2.400
     1  1.500     23  2.400
     3   .000      7   .000

 PAW_PBE Ag 06Sep2000                   :

 POSCAR: Ag
  positions in direct lattice

 ion  position               nearest neighbor table
   1  0.001  0.000  0.000-   9 2.79  11 2.79  17 2.79  21 2.79  25 2.80  27 2.80  29 2.80  31 2.80
                            10 2.80  18 2.80  12 2.80  22 2.80
   2  0.500  0.000  0.000-   9 2.80  10 2.80  11 2.80  12 2.80  17 2.80  18 2.80  21 2.80  22 2.80
                            26 2.80  28 2.80  30 2.80  32 2.80
   3  0.000  0.500  0.000-   9 2.80  10 2.80  11 2.80  12 2.80  19 2.80  20 2.80  23 2.80  24 2.80
                            25 2.80  27 2.80  29 2.80  31 2.80
   4  0.500  0.500  0.000-   9 2.80  10 2.80  11 2.80  12 2.80  19 2.80  20 2.80  23 2.80  24 2.80
                            26 2.80  28 2.80  30 2.80  32 2.80
   5  0.000  0.000  0.500-  13 2.80  14 2.80  15 2.80  16 2.80  17 2.80  18 2.80  21 2.80  22 2.80
                            25 2.80  27 2.80  29 2.80  31 2.80
   6  0.500  0.000  0.500-  13 2.80  14 2.80  15 2.80  16 2.80  17 2.80  18 2.80  21 2.80  22 2.80
                            26 2.80  28 2.80  30 2.80  32 2.80
   7  0.000  0.500  0.500-  13 2.80  14 2.80  15 2.80  16 2.80  19 2.80  20 2.80  23 2.80  24 2.80
                            25 2.80  27 2.80  29 2.80  31 2.80
   8  0.500  0.500  0.500-  13 2.80  14 2.80  15 2.80  16 2.80  19 2.80  20 2.80  23 2.80  24 2.80
                            26 2.80  28 2.80  30 2.80  32 2.80
   9  0.250  0.250  0.000-   1 2.79   2 2.80   3 2.80   4 2.80  17 2.80  19 2.80  21 2.80  23 2.80
                            25 2.80  26 2.80  29 2.80  30 2.80
  10  0.750  0.250  0.000-   2 2.80   3 2.80   4 2.80  18 2.80  20 2.80  22 2.80  24 2.80  25 2.80
                            26 2.80  29 2.80  30 2.80   1 2.80
  11  0.250  0.750  0.000-   1 2.79   2 2.80   3 2.80   4 2.80  17 2.80  19 2.80  21 2.80  23 2.80
                            27 2.80  28 2.80  31 2.80  32 2.80
  12  0.750  0.750  0.000-   2 2.80   3 2.80   4 2.80  18 2.80  20 2.80  22 2.80  24 2.80  27 2.80
                            28 2.80  31 2.80  32 2.80   1 2.80
  13  0.250  0.250  0.500-   5 2.80   6 2.80   7 2.80   8 2.80  17 2.80  19 2.80  21 2.80  23 2.80
                            25 2.80  26 2.80  29 2.80  30 2.80
  14  0.750  0.250  0.500-   5 2.80   6 2.80   7 2.80   8 2.80  18 2.80  20 2.80  22 2.80  24 2.80
                            25 2.80  26 2.80  29 2.80  30 2.80
  15  0.250  0.750  0.500-   5 2.80   6 2.80   7 2.80   8 2.80  17 2.80  19 2.80  21 2.80  23 2.80
                            27 2.80  28 2.80  31 2.80  32 2.80
  16  0.750  0.750  0.500-   5 2.80   6 2.80   7 2.80   8 2.80  18 2.80  20 2.80  22 2.80  24 2.80
                            27 2.80  28 2.80  31 2.80  32 2.80
  17  0.250  0.000  0.250-   1 2.79   2 2.80   5 2.80   6 2.80   9 2.80  11 2.80  13 2.80  15 2.80
                            25 2.80  26 2.80  27 2.80  28 2.80
  18  0.750  0.000  0.250-   2 2.80   5 2.80   6 2.80  10 2.80  12 2.80  14 2.80  16 2.80  25 2.80
                            26 2.80  27 2.80  28 2.80   1 2.80
  19  0.250  0.500  0.250-   3 2.80   4 2.80   7 2.80   8 2.80   9 2.80  11 2.80  13 2.80  15 2.80
                            25 2.80  26 2.80  27 2.80  28 2.80
  20  0.750  0.500  0.250-   3 2.80   4 2.80   7 2.80   8 2.80  10 2.80  12 2.80  14 2.80  16 2.80
                            25 2.80  26 2.80  27 2.80  28 2.80
  21  0.250  0.000  0.750-   1 2.79   2 2.80   5 2.80   6 2.80   9 2.80  11 2.80  13 2.80  15 2.80
                            29 2.80  30 2.80  31 2.80  32 2.80
  22  0.750  0.000  0.750-   2 2.80   5 2.80   6 2.80  10 2.80  12 2.80  14 2.80  16 2.80  29 2.80
                            30 2.80  31 2.80  32 2.80   1 2.80
  23  0.250  0.500  0.750-   3 2.80   4 2.80   7 2.80   8 2.80   9 2.80  11 2.80  13 2.80  15 2.80
                            29 2.80  30 2.80  31 2.80  32 2.80
  24  0.750  0.500  0.750-   3 2.80   4 2.80   7 2.80   8 2.80  10 2.80  12 2.80  14 2.80  16 2.80
                            29 2.80  30 2.80  31 2.80  32 2.80
  25  0.000  0.250  0.250-   3 2.80   5 2.80   7 2.80   9 2.80  10 2.80  13 2.80  14 2.80  17 2.80
                            18 2.80  19 2.80  20 2.80   1 2.80
  26  0.500  0.250  0.250-   2 2.80   4 2.80   6 2.80   8 2.80   9 2.80  10 2.80  13 2.80  14 2.80
                            17 2.80  18 2.80  19 2.80  20 2.80
  27  0.000  0.750  0.250-   3 2.80   5 2.80   7 2.80  11 2.80  12 2.80  15 2.80  16 2.80  17 2.80
                            18 2.80  19 2.80  20 2.80   1 2.80
  28  0.500  0.750  0.250-   2 2.80   4 2.80   6 2.80   8 2.80  11 2.80  12 2.80  15 2.80  16 2.80
                            17 2.80  18 2.80  19 2.80  20 2.80
  29  0.000  0.250  0.750-   3 2.80   5 2.80   7 2.80   9 2.80  10 2.80  13 2.80  14 2.80  21 2.80
                            22 2.80  23 2.80  24 2.80   1 2.80
  30  0.500  0.250  0.750-   2 2.80   4 2.80   6 2.80   8 2.80   9 2.80  10 2.80  13 2.80  14 2.80
                            21 2.80  22 2.80  23 2.80  24 2.80
  31  0.000  0.750  0.750-   3 2.80   5 2.80   7 2.80  11 2.80  12 2.80  15 2.80  16 2.80  21 2.80
                            22 2.80  23 2.80  24 2.80   1 2.80
  32  0.500  0.750  0.750-   2 2.80   4 2.80   6 2.80   8 2.80  11 2.80  12 2.80  15 2.80  16 2.80
                            21 2.80  22 2.80  23 2.80  24 2.80

  LATTYP: Found a simple cubic cell.
 ALAT       =     7.9101270851

  Lattice vectors:

 A1 = (   7.9101270851,   0.0000000000,   0.0000000000)
 A2 = (   0.0000000000,   7.9101270851,   0.0000000000)
 A3 = (   0.0000000000,   0.0000000000,   7.9101270851)
 Subroutine PRICEL returns:
 Original cell was already a primitive cell.

Analysis of symmetry for initial positions (statically):

 Routine SETGRP: Setting up the symmetry group for a
 simple cubic supercell.

 Subroutine GETGRP returns: Found  8 space group operations
 (whereof  8 operations were pure point group operations)
 out of a pool of 48 trial point group operations.

The static configuration has the point symmetry C_4v.

Analysis of symmetry for dynamics (positions and initial velocities):

 Subroutine DYNSYM returns: Found  8 space group operations
 (whereof  8 operations were pure point group operations)
 out of a pool of  8 trial space group operations
 (whereof  8 operations were pure point group operations)
 and found also     1 'primitive' translations

The dynamic configuration has the point symmetry C_4v.

 KPOINTS: Automatic mesh

Automatic generation of k-mesh.

 Subroutine IBZKPT returns following result:

 Found    196 irreducible k-points:

 Following reciprocal coordinates:
            Coordinates               Weight
  0.000000  0.000000  0.000000      1.000000
  0.083333  0.000000  0.000000      2.000000
  0.166667  0.000000  0.000000      2.000000
  0.250000  0.000000  0.000000      2.000000
  0.333333  0.000000  0.000000      2.000000
  0.416667  0.000000  0.000000      2.000000
  0.500000  0.000000  0.000000      1.000000
  0.000000  0.083333  0.000000      4.000000
  0.083333  0.083333  0.000000      8.000000
  0.166667  0.083333  0.000000      8.000000
  0.250000  0.083333  0.000000      8.000000
  0.333333  0.083333  0.000000      8.000000
  0.416667  0.083333  0.000000      8.000000
  0.500000  0.083333  0.000000      4.000000
  0.000000  0.166667  0.000000      4.000000
  0.083333  0.166667  0.000000      8.000000
  0.166667  0.166667  0.000000      8.000000
  0.250000  0.166667  0.000000      8.000000
  0.333333  0.166667  0.000000      8.000000
  0.416667  0.166667  0.000000      8.000000
  0.500000  0.166667  0.000000      4.000000
  0.000000  0.250000  0.000000      4.000000
  0.083333  0.250000  0.000000      8.000000
  0.166667  0.250000  0.000000      8.000000
  0.250000  0.250000  0.000000      8.000000
  0.333333  0.250000  0.000000      8.000000
  0.416667  0.250000  0.000000      8.000000
  0.500000  0.250000  0.000000      4.000000
  0.000000  0.333333  0.000000      4.000000
  0.083333  0.333333  0.000000      8.000000
  0.166667  0.333333  0.000000      8.000000
  0.250000  0.333333  0.000000      8.000000
  0.333333  0.333333  0.000000      8.000000
  0.416667  0.333333  0.000000      8.000000
  0.500000  0.333333  0.000000      4.000000
  0.000000  0.416667  0.000000      4.000000
  0.083333  0.416667  0.000000      8.000000
  0.166667  0.416667  0.000000      8.000000
  0.250000  0.416667  0.000000      8.000000
  0.333333  0.416667  0.000000      8.000000
  0.416667  0.416667  0.000000      8.000000
  0.500000  0.416667  0.000000      4.000000
  0.000000  0.500000  0.000000      2.000000
  0.083333  0.500000  0.000000      4.000000
  0.166667  0.500000  0.000000      4.000000
  0.250000  0.500000  0.000000      4.000000
  0.333333  0.500000  0.000000      4.000000
  0.416667  0.500000  0.000000      4.000000
  0.500000  0.500000  0.000000      2.000000
  0.000000  0.083333  0.083333      4.000000
  0.083333  0.083333  0.083333      8.000000
  0.166667  0.083333  0.083333      8.000000
  0.250000  0.083333  0.083333      8.000000
  0.333333  0.083333  0.083333      8.000000
  0.416667  0.083333  0.083333      8.000000
  0.500000  0.083333  0.083333      4.000000
  0.000000  0.166667  0.083333      8.000000
  0.083333  0.166667  0.083333     16.000000
  0.166667  0.166667  0.083333     16.000000
  0.250000  0.166667  0.083333     16.000000
[...]
  0.500000  0.416667  0.416667      4.000000
  0.000000  0.500000  0.416667      4.000000
  0.083333  0.500000  0.416667      8.000000
  0.166667  0.500000  0.416667      8.000000
  0.250000  0.500000  0.416667      8.000000
  0.333333  0.500000  0.416667      8.000000
  0.416667  0.500000  0.416667      8.000000
  0.500000  0.500000  0.416667      4.000000
  0.000000  0.500000  0.500000      1.000000
  0.083333  0.500000  0.500000      2.000000
  0.166667  0.500000  0.500000      2.000000
  0.250000  0.500000  0.500000      2.000000
  0.333333  0.500000  0.500000      2.000000
  0.416667  0.500000  0.500000      2.000000
  0.500000  0.500000  0.500000      1.000000

 Following cartesian coordinates:
            Coordinates               Weight
  0.000000  0.000000  0.000000      1.000000
  0.010535  0.000000  0.000000      2.000000
  0.021070  0.000000  0.000000      2.000000
  0.031605  0.000000  0.000000      2.000000
  0.042140  0.000000  0.000000      2.000000
  0.052675  0.000000  0.000000      2.000000
  0.063210  0.000000  0.000000      1.000000
  0.000000  0.010535  0.000000      4.000000
  0.010535  0.010535  0.000000      8.000000
  0.021070  0.010535  0.000000      8.000000
[...]
 augmentation part   168.0563575 magnetization

[...]

 eigenvalue-minimisations  : 45388
 total energy-change (2. order) : 0.4139292E-07  ( 0.2724102E-11)
 number of electron  352.0000007 magnetization
 augmentation part   168.0563598 magnetization

[...]

 Broyden mixing:
  rms(total) = 0.16657E-05    rms(broyden)= 0.16402E-05
  rms(prec ) = 0.23572E-05
  weight for this iteration     100.00

 eigenvalues of (default mixing * dielectric matrix)
  average eigenvalue GAMMA=   1.5391
  2.8374  2.5249  2.5249  2.3618  1.4464  1.4464  1.0450  1.0450  1.0177  0.9057
  0.7171  0.5969

[...]

----------------------------------------- Iteration    1(  18)  ---------------------------------------

 eigenvalue-minimisations  : 44744
 total energy-change (2. order) : 0.7807103E-08  ( 0.8042384E-11)
 number of electron  352.0000007 magnetization
 augmentation part   168.0563637 magnetization

 Free energy of the ion-electron system (eV)
  alpha Z        PSCENC =      3673.99042332
  Ewald energy   TEWEN  =    -32317.21892492
  -1/2 Hartree   DENC   =     -5598.46610030
  -V(xc)+E(xc)   XCENC  =      -347.56738611
  PAW double counting   =     28176.75877444   -26787.45004847
  entropy T*S    EENTRO =        -0.00096920
  eigenvalues    EBANDS =       -83.06606469
  atomic energy  EATOM  =     33197.19690173
  free energy    TOTEN  =       -85.82339420 eV

  energy without entropy =      -85.82242500  energy(sigma->0) =      -85.82290960

 average (electrostatic) potential at core
  the test charge radii are     1.1249
  (the norm of the test charge is              1.0000)
       1 -40.6064       2 -40.6063       3 -40.6063       4 -40.6063       5 -40.6063
       6 -40.6063       7 -40.6063       8 -40.6063       9 -40.6077      10 -40.6049
      11 -40.6077      12 -40.6049      13 -40.6063      14 -40.6063      15 -40.6063
      16 -40.6063      17 -40.6077      18 -40.6049      19 -40.6063      20 -40.6063
      21 -40.6077      22 -40.6049      23 -40.6063      24 -40.6063      25 -40.6063
      26 -40.6063      27 -40.6063      28 -40.6063      29 -40.6063      30 -40.6063
      31 -40.6063      32 -40.6063

 E-fermi :   4.5033     XC(G=0): -12.8014     alpha+bet : -9.4143
   add alpha+bet to get absolut eigen values

 k-point   1 :       0.0000    0.0000    0.0000
  band No.  band energies     occupation
      1      -4.0653      2.00000
      2      -2.7129      2.00000
      3      -2.7129      2.00000
      4      -2.7129      2.00000
      5      -2.6281      2.00000
      6      -2.6281      2.00000
      7      -2.6281      2.00000
      8      -2.6281      2.00000
      9      -2.5376      2.00000
     10      -2.5376      2.00000
     11      -2.5376      2.00000
     12      -2.1571      2.00000
     13      -2.1549      2.00000
     14      -2.1549      2.00000
     15      -2.1549      2.00000
     16      -2.1549      2.00000
     17      -2.1528      2.00000
     18      -1.8452      2.00000
     19      -1.8430      2.00000
     20      -1.8430      2.00000
     21      -1.8430      2.00000
     22      -1.8430      2.00000
     23      -1.8409      2.00000
     24      -1.7119      2.00000
     25      -1.7096      2.00000
     26      -1.7096      2.00000
     27      -1.7096      2.00000
     28      -1.7096      2.00000
     29      -1.7074      2.00000
     30      -1.4306      2.00000
     31      -1.4306      2.00000
     32      -1.4300      2.00000
     33      -1.4291      2.00000
     34      -1.4287      2.00000
     35      -1.4287      2.00000
     36      -1.4287      2.00000
     37      -1.4287      2.00000
     38      -1.4283      2.00000
     39      -1.4273      2.00000
     40      -1.4268      2.00000
     41      -1.4268      2.00000
     42      -1.1774      2.00000
     43      -1.1746      2.00000
     44      -1.1746      2.00000
     45      -1.1734      2.00000
     46      -1.1734      2.00000
     47      -1.1734      2.00000
     48      -1.1734      2.00000
     49      -1.1734      2.00000
     50      -1.1734      2.00000
     51      -1.1723      2.00000
     52      -1.1723      2.00000
     53      -1.1696      2.00000
     54      -1.1095      2.00000
     55      -1.1095      2.00000
     56      -1.1072      2.00000
     57      -1.1072      2.00000
     58      -1.1072      2.00000
     59      -1.1071      2.00000
     60      -1.1071      2.00000
[...]
    198      10.8346      0.00000
    199      10.8350      0.00000
    200      10.8350      0.00000
    201      10.8378      0.00000
    202      10.8378      0.00000
    203      12.0021      0.00000
    204      12.0022      0.00000
    205      12.0022      0.00000
    206      12.3077      0.00000
    207      12.3077      0.00000
    208      12.3078      0.00000
    209      12.3078      0.00000
    210      12.3078      0.00000
    211      12.3079      0.00000
    212      13.2175      0.00000

[...]

 k-point 196 :       0.5000    0.5000    0.5000
  band No.  band energies     occupation
      1      -2.5938      2.00000
      2      -2.5920      2.00000
      3      -2.5919      2.00000
      4      -2.5919      2.00000
      5      -2.5908      2.00000
      6      -2.5908      2.00000
      7      -2.5907      2.00000
      8      -2.5889      2.00000
      9      -2.1022      2.00000
     10      -2.1015      2.00000
     11      -2.1015      2.00000
     12      -2.1015      2.00000
     13      -2.0999      2.00000
     14      -2.0995      2.00000
     15      -2.0992      2.00000
     16      -2.0992      2.00000
     17      -2.0992      2.00000
     18      -2.0991      2.00000
     19      -2.0991      2.00000
     20      -2.0990      2.00000
     21      -2.0988      2.00000
     22      -2.0988      2.00000
     23      -2.0988      2.00000
     24      -2.0987      2.00000
     25      -2.0987      2.00000
     26      -2.0986      2.00000
     27      -2.0984      2.00000
     28      -2.0980      2.00000
     29      -2.0965      2.00000
     30      -2.0965      2.00000
     31      -2.0964      2.00000
     32      -2.0958      2.00000
     33      -1.4598      2.00000
     34      -1.4557      2.00000
     35      -1.4555      2.00000
     36      -1.4553      2.00000
     37      -1.4553      2.00000
     38      -1.4545      2.00000
     39      -1.4542      2.00000
     40      -1.4542      2.00000
     41      -1.4541      2.00000
     42      -1.4540      2.00000
     43      -1.4540      2.00000
     44      -1.4539      2.00000
     45      -1.4539      2.00000
     46      -1.4539      2.00000
     47      -1.4539      2.00000
     48      -1.4538      2.00000
     49      -1.4536      2.00000
     50      -1.4536      2.00000
     51      -1.4533      2.00000
     52      -1.4525      2.00000
     53      -1.4525      2.00000
     54      -1.4524      2.00000
     55      -1.4521      2.00000
     56      -1.4480      2.00000
     57      -0.5377      2.00000
     58      -0.5367      2.00000
     59      -0.5356      2.00000
     60      -0.5356      2.00000
[...]
    198      11.1264      0.00000
    199      11.1264      0.00000
    200      11.1268      0.00000
    201      11.1269      0.00000
    202      11.1269      0.00000
    203      11.1270      0.00000
    204      11.1271      0.00000
    205      11.1271      0.00000
    206      11.1272      0.00000
    207      11.1272      0.00000
    208      11.1274      0.00000
    209      11.1277      0.00000
    210      11.1277      0.00000
    211      11.1284      0.00000
    212      11.1286      0.00000

 soft charge-density along one line, spin component           1
         0         1         2         3         4         5         6         7         8         9
 total charge-density along one line

------------------------ aborting loop because EDIFF is reached ----------------------------------------

  FREE ENERGIE OF THE ION-ELECTRON SYSTEM (eV)
  free  energy   TOTEN  =       -85.823394 eV

  energy  without entropy=      -85.822425  energy(sigma->0) =      -85.822910

  FORCE on cell =-STRESS in cart. coord.  units (eV/reduce length):
  Direction    X        Y        Z        XY       YZ       ZX
  Alpha Z   3673.99   3673.99   3673.99
  Ewald   -10772.48 -10772.44 -10772.44     -0.00     -0.00     -0.00
  Hartree   1866.14   1866.16   1866.16     -0.00     -0.00     -0.00
  E(xc)    -1872.42  -1872.42  -1872.42     -0.00      0.00     -0.00
  Local     3484.03   3483.96   3483.96      0.00      0.00      0.00
  n-local  -2031.44  -2035.74  -2027.14      2.16      1.37      0.59
  augment   1344.00   1344.00   1344.00     -0.00     -0.00     -0.00
  Kinetic   4374.55   4367.56   4381.55      0.94     -0.68     -2.31
  Total       66.37     66.37     66.37      0.00      0.00      0.00
  in kB      214.85    214.85    214.85      0.00      0.00      0.00

 VOLUME and BASIS-vectors are now :
  energy-cutoff  :      750.00
  volume of cell :      494.94
      direct lattice vectors                 reciprocal lattice vectors
     7.910127085  0.000000000  0.000000000     0.126420219  0.000000000  0.000000000
     0.000000000  7.910127085  0.000000000     0.000000000  0.126420219  0.000000000
     0.000000000  0.000000000  7.910127085     0.000000000  0.000000000  0.126420219

  length of vectors
     7.910127085  7.910127085  7.910127085     0.126420219  0.126420219  0.126420219

 FORCES acting on ions
    electron-ion (+dipol)            ewald-force                    non-local-force                 convergence-correction
   0.449E+01 -.934E-13 0.863E-07   -.457E+01 0.178E-13 -.995E-13   -.161E-01 0.213E-19 -.180E-19   -.156E-05 0.148E-13 -.492E-13
   -.119E+01 0.217E-13 -.870E-07   0.121E+01 0.284E-13 0.284E-13   -.105E-01 -.119E-19 -.584E-20   -.158E-05 -.877E-14 -.117E-12
   0.379E+00 0.489E-12 -.742E-10   -.382E+00 0.355E-13 -.533E-13   0.277E-02 -.306E-20 -.265E-20   -.232E-06 0.513E-14 -.339E-13
   -.304E+00 0.423E-11 -.747E-10   0.300E+00 0.284E-13 0.284E-13   0.376E-02 -.783E-20 0.812E-21   0.116E-05 -.240E-13 -.778E-13
   0.379E+00 -.790E-13 0.524E-10   -.382E+00 0.355E-14 0.568E-13   0.277E-02 0.873E-20 0.162E-20   0.215E-06 0.258E-14 0.143E-13
   -.304E+00 -.117E-12 0.536E-10   0.300E+00 0.000E+00 0.284E-13   0.376E-02 0.387E-20 0.166E-19   0.107E-05 -.239E-13 0.365E-13
   0.159E+00 0.474E-12 -.968E-10   -.158E+00 0.355E-13 0.568E-13   -.131E-02 0.371E-21 -.115E-19   -.713E-06 0.208E-13 -.267E-13
   -.148E+00 -.323E-11 -.951E-10   0.147E+00 0.284E-13 0.284E-13   -.178E-03 -.250E-20 -.501E-20   0.729E-06 -.622E-14 -.167E-13
   -.570E+00 -.110E+01 -.331E-11   0.580E+00 0.111E+01 -.462E-13   0.332E-02 0.580E-03 -.115E-19   0.231E-06 -.313E-06 -.882E-13
   -.574E+00 0.109E+01 -.130E-11   0.583E+00 -.110E+01 0.107E-13   0.337E-02 -.604E-03 -.215E-20   0.449E-06 0.403E-06 -.629E-13
   -.570E+00 0.110E+01 -.314E-11   0.580E+00 -.111E+01 0.000E+00   0.332E-02 -.580E-03 0.409E-20   0.231E-06 0.313E-06 -.821E-13
   -.574E+00 -.109E+01 -.124E-11   0.583E+00 0.110E+01 0.114E-12   0.337E-02 0.604E-03 -.233E-20   0.449E-06 -.403E-06 -.528E-13
   -.159E-01 -.913E-01 -.508E-11   0.176E-01 0.916E-01 0.604E-13   -.152E-02 -.115E-03 0.398E-21   -.496E-06 -.135E-06 -.320E-14
   -.178E-01 0.911E-01 -.927E-11   0.195E-01 -.914E-01 0.604E-13   -.150E-02 0.128E-03 0.190E-20   -.203E-06 0.427E-07 -.142E-15
   -.159E-01 0.913E-01 -.507E-11   0.176E-01 -.916E-01 0.568E-13   -.152E-02 0.115E-03 0.134E-20   -.496E-06 0.135E-06 -.759E-15
   -.178E-01 -.911E-01 -.100E-10   0.195E-01 0.914E-01 0.568E-13   -.150E-02 -.128E-03 -.319E-20   -.203E-06 -.427E-07 -.678E-14
   -.570E+00 -.770E-13 -.110E+01   0.580E+00 0.178E-13 0.111E+01   0.332E-02 0.276E-20 0.580E-03   0.142E-06 -.204E-13 -.237E-06
   -.574E+00 -.183E-12 0.109E+01   0.583E+00 0.178E-13 -.110E+01   0.337E-02 0.461E-20 -.604E-03   0.361E-06 -.169E-13 0.328E-06
   -.159E-01 0.480E-12 -.913E-01   0.176E-01 0.391E-13 0.916E-01   -.152E-02 -.883E-21 -.115E-03   -.472E-06 -.977E-14 -.582E-07
   -.178E-01 -.517E-11 0.911E-01   0.195E-01 0.391E-13 -.914E-01   -.150E-02 -.507E-22 0.128E-03   -.178E-06 0.156E-13 -.337E-07
   -.570E+00 -.107E-12 0.110E+01   0.580E+00 0.000E+00 -.111E+01   0.332E-02 -.136E-19 -.580E-03   0.142E-06 -.179E-13 0.237E-06
   -.574E+00 -.124E-12 -.109E+01   0.583E+00 0.000E+00 0.110E+01   0.337E-02 0.118E-20 0.604E-03   0.361E-06 -.887E-14 -.328E-06
   -.159E-01 0.509E-12 0.913E-01   0.176E-01 0.284E-13 -.916E-01   -.152E-02 0.182E-20 0.115E-03   -.472E-06 -.133E-13 0.582E-07
   -.178E-01 -.592E-11 -.911E-01   0.195E-01 0.284E-13 0.914E-01   -.150E-02 -.100E-20 -.128E-03   -.178E-06 0.871E-14 0.337E-07
   0.715E+00 0.283E-02 0.283E-02   -.721E+00 -.286E-02 -.286E-02   0.290E-02 -.101E-05 -.101E-05   0.212E-06 0.184E-07 0.178E-07
   -.402E+00 -.847E-03 -.847E-03   0.405E+00 0.858E-03 0.858E-03   -.280E-02 -.108E-04 -.108E-04   0.214E-06 -.324E-07 -.322E-07
   0.715E+00 -.283E-02 0.283E-02   -.721E+00 0.286E-02 -.286E-02   0.290E-02 0.101E-05 -.101E-05   0.212E-06 -.184E-07 0.178E-07
   -.402E+00 0.847E-03 -.847E-03   0.405E+00 -.858E-03 0.858E-03   -.280E-02 0.108E-04 -.108E-04   0.214E-06 0.324E-07 -.322E-07
   0.715E+00 0.283E-02 -.283E-02   -.721E+00 -.286E-02 0.286E-02   0.290E-02 -.101E-05 0.101E-05   0.212E-06 0.184E-07 -.178E-07
   -.402E+00 -.847E-03 0.847E-03   0.405E+00 0.858E-03 -.858E-03   -.280E-02 -.108E-04 0.108E-04   0.214E-06 -.324E-07 0.322E-07
   0.715E+00 -.283E-02 -.283E-02   -.721E+00 0.286E-02 0.286E-02   0.290E-02 0.101E-05 0.101E-05   0.212E-06 -.184E-07 -.178E-07
   -.402E+00 0.847E-03 0.847E-03   0.405E+00 -.858E-03 -.858E-03   -.280E-02 0.108E-04 0.108E-04   0.214E-06 0.324E-07 0.322E-07
   -.463E-06 -.170E-10 -.121E-08   0.641E-13 -.488E-12 0.121E-12   0.525E-05 -.169E-20 -.152E-19   0.464E-06 -.265E-12 -.743E-12

 POSITION                                       TOTAL-FORCE (eV/Angst)
      0.01000      0.00000      0.00000        -0.093695     -0.000000      0.000000
      3.95506      0.00000      0.00000         0.001690      0.000000     -0.000000
      0.00000      3.95506      0.00000        -0.000433      0.000000      0.000000
      3.95506      3.95506      0.00000        -0.000327      0.000000     -0.000000
      0.00000      0.00000      3.95506        -0.000433      0.000000      0.000000
      3.95506      0.00000      3.95506        -0.000327     -0.000000      0.000000
      0.00000      3.95506      3.95506        -0.000030     -0.000000     -0.000000
      3.95506      3.95506      3.95506        -0.000226      0.000000      0.000000
      1.97753      1.97753      0.00000         0.012678      0.015093      0.000000
      5.93260      1.97753      0.00000         0.012352     -0.014618      0.000000
      1.97753      5.93260      0.00000         0.012678     -0.015093      0.000000
      5.93260      5.93260      0.00000         0.012352      0.014618      0.000000
      1.97753      1.97753      3.95506         0.000177      0.000169      0.000000
      5.93260      1.97753      3.95506         0.000177     -0.000173     -0.000000
      1.97753      5.93260      3.95506         0.000177     -0.000169     -0.000000
      5.93260      5.93260      3.95506         0.000177      0.000173     -0.000000
      1.97753      0.00000      1.97753         0.012678     -0.000000      0.015093
      5.93260      0.00000      1.97753         0.012352     -0.000000     -0.014618
      1.97753      3.95506      1.97753         0.000177      0.000000      0.000169
      5.93260      3.95506      1.97753         0.000177      0.000000     -0.000173
      1.97753      0.00000      5.93260         0.012678      0.000000     -0.015093
      5.93260      0.00000      5.93260         0.012352      0.000000      0.014618
      1.97753      3.95506      5.93260         0.000177      0.000000     -0.000169
      5.93260      3.95506      5.93260         0.000177      0.000000      0.000173
      0.00000      1.97753      1.97753        -0.002448     -0.000030     -0.000030
      3.95506      1.97753      1.97753         0.000509     -0.000000     -0.000000
      0.00000      5.93260      1.97753        -0.002448      0.000030     -0.000030
      3.95506      5.93260      1.97753         0.000509      0.000000     -0.000000
      0.00000      1.97753      5.93260        -0.002448     -0.000030      0.000030
      3.95506      1.97753      5.93260         0.000509     -0.000000      0.000000
      0.00000      5.93260      5.93260        -0.002448      0.000030      0.000030
      3.95506      5.93260      5.93260         0.000509      0.000000      0.000000
    total drift:                                0.000005     -0.000000     -0.000000

 mean value of Nose-termostat <S>:     1.000 mean value of <T> :     0.000
 mean temperature <T/S>/<1/S>  :     0.000