 vasp.4.6.28 25Jul05 complex
 executed on             LinuxIFC date 2016.11.25  11:54:39

 INCAR:
 POTCAR:   PAW_PBE Ti_pv 07Sep2000
 POTCAR:   PAW_PBE Ti_pv 07Sep2000
   VRHFIN =Ti: d3 s1

   TITEL  = PAW_PBE Ti_pv 07Sep2000
   POMASS =   47.880; ZVAL   =   10.000    mass and valenz
   ENMAX  =  222.338; ENMIN  =  166.753 eV
   QCUT   =   -4.042; QGAM   =    8.085    optimization parameters

   Description
     l     E      TYP  RCUT    TYP  RCUT
     1   .000     23  2.300
     1  -.100     23  2.300
     2   .000     23  2.500
     2   .000     23  2.500
     0   .000     23  2.500
     0  1.500     23  2.500
     3   .000      7   .000

 PAW_PBE Ti_pv 07Sep2000                :

 POSCAR: Ti-hcp
  positions in direct lattice

 ion  position               nearest neighbor table
   1  0.332  0.668  0.250-   2 2.84   2 2.84   2 2.84   2 2.84   2 2.85   2 2.85
   2  0.668  0.332  0.750-   1 2.84   1 2.84   1 2.84   1 2.84   1 2.85   1 2.85

  LATTYP: Found a base centered orthorhombic cell.
 ALAT       =     2.9545207598
 B/A-ratio  =     1.7208744689
 C/A-ratio  =     1.5426190003

  Lattice vectors:

 A1 = (   2.9402223666,   0.0082551467,   0.0000000000)
 A2 = (  -1.4629619568,   2.5504348700,   0.0000000000)
 A3 = (   0.0000000000,   0.0000000000,   4.5576998610)
 Subroutine PRICEL returns:
 Original cell was already a primitive cell.

Analysis of symmetry for initial positions (statically):

 Routine SETGRP: Setting up the symmetry group for a
 base centered orthorhombic supercell.

 Subroutine GETGRP returns: Found  8 space group operations
 (whereof  4 operations were pure point group operations)
 out of a pool of  8 trial point group operations.

The static configuration has the point symmetry C_2h.
 The point group associated with its full space group is D_2h.

Analysis of symmetry for dynamics (positions and initial velocities):

 Subroutine DYNSYM returns: Found  8 space group operations
 (whereof  4 operations were pure point group operations)
 out of a pool of  8 trial space group operations
 (whereof  4 operations were pure point group operations)
 and found also     1 'primitive' translations

The dynamic configuration has the point symmetry C_2h.
 The point group associated with its full space group is D_2h.

 KPOINTS: Automatic mesh

Automatic generation of k-mesh.

 Subroutine IBZKPT returns following result:

 Found     27 irreducible k-points:

 Following reciprocal coordinates:
            Coordinates               Weight
  0.000000  0.000000  0.000000      1.000000
  0.200000  0.000000  0.000000      4.000000
  0.400000  0.000000  0.000000      4.000000
  0.200000  0.200000  0.000000      2.000000
  0.400000  0.200000  0.000000      4.000000
 -0.400000  0.200000  0.000000      4.000000
 -0.200000  0.200000  0.000000      2.000000
  0.400000  0.400000  0.000000      2.000000
 -0.400000  0.400000  0.000000      2.000000
  0.000000  0.000000  0.200000      2.000000
  0.200000  0.000000  0.200000      8.000000
  0.400000  0.000000  0.200000      8.000000
  0.200000  0.200000  0.200000      4.000000
  0.400000  0.200000  0.200000      8.000000
 -0.400000  0.200000  0.200000      8.000000
 -0.200000  0.200000  0.200000      4.000000
  0.400000  0.400000  0.200000      4.000000
 -0.400000  0.400000  0.200000      4.000000
  0.000000  0.000000  0.400000      2.000000
  0.200000  0.000000  0.400000      8.000000
  0.400000  0.000000  0.400000      8.000000
  0.200000  0.200000  0.400000      4.000000
  0.400000  0.200000  0.400000      8.000000
 -0.400000  0.200000  0.400000      8.000000
 -0.200000  0.200000  0.400000      4.000000
  0.400000  0.400000  0.400000      4.000000
 -0.400000  0.400000  0.400000      4.000000

 Following cartesian coordinates:
            Coordinates               Weight
  0.000000  0.000000  0.000000      1.000000
  0.067913  0.038956  0.000000      4.000000
  0.135825  0.077911  0.000000      4.000000
  0.067693  0.117247  0.000000      2.000000
  0.135606  0.156203  0.000000      4.000000
 -0.136045  0.000381  0.000000      4.000000
 -0.068133  0.039336  0.000000      2.000000
  0.135386  0.234495  0.000000      2.000000
 -0.136265  0.078673  0.000000      2.000000
  0.000000  0.000000  0.043882      2.000000
  0.067913  0.038956  0.043882      8.000000
  0.135825  0.077911  0.043882      8.000000
  0.067693  0.117247  0.043882      4.000000
  0.135606  0.156203  0.043882      8.000000
 -0.136045  0.000381  0.043882      8.000000
 -0.068133  0.039336  0.043882      4.000000
  0.135386  0.234495  0.043882      4.000000
 -0.136265  0.078673  0.043882      4.000000
  0.000000  0.000000  0.087764      2.000000
  0.067913  0.038956  0.087764      8.000000
  0.135825  0.077911  0.087764      8.000000
  0.067693  0.117247  0.087764      4.000000
  0.135606  0.156203  0.087764      8.000000
 -0.136045  0.000381  0.087764      8.000000
 -0.068133  0.039336  0.087764      4.000000
  0.135386  0.234495  0.087764      4.000000
 -0.136265  0.078673  0.087764      4.000000

 I would recommend the setting:
   dimension x,y,z NGX =    21 NGY =   21 NGZ =   33
 SYSTEM =  unknown system
 POSCAR =  Ti-hcp

 Startparameter for this run:
   NWRITE =      2    write-flag & timer
   PREC   = accura    medium, high low
   ISTART =      0    job   : 0-new  1-cont  2-samecut
   ICHARG =      2    charge: 1-file 2-atom 10-const
   ISPIN  =      1    spin polarized calculation?
   LNONCOLLINEAR =      F non collinear calculations
   LSORBIT =      F    spin-orbit coupling
   INIWAV =      1    electr: 0-lowe 1-rand  2-diag
   LASPH  =      F    aspherical Exc in radial PAW
   METAGGA=      F    non-selfconsistent MetaGGA calc.

 Electronic Relaxation 1
   ENCUT  =  500.0 eV  36.75 Ry    6.06 a.u.   5.36  5.36  8.31*2*pi/ulx,y,z
   ENINI  =  500.0     initial cutoff
   ENAUG  =  482.8 eV  augmentation charge cutoff
   NELM   =     60;   NELMIN=  2; NELMDL=  0     # of ELM steps
   EDIFF  = 0.1E-07   stopping-criterion for ELM
   LREAL  =      F    real-space projection
   LCOMPAT=      F    compatible to vasp.4.4
   LREAL_COMPAT= F    compatible to vasp.4.5.1-3
   GGA_COMPAT  = T    GGA compatible to vasp.4.4-vasp.4.6
   LMAXPAW     = -100 max onsite density
   LMAXMIX     =    2 max onsite mixed and CHGCAR
   VOSKOWN=      0    Vosko Wilk Nusair interpolation
   ROPT   =    0.00000
 Ionic relaxation
   EDIFFG = 0.1E-06   stopping-criterion for IOM
   NSW    =      0    number of steps for IOM
   NBLOCK =      1;   KBLOCK =      1    inner block; outer block
   IBRION =     -1    ionic relax: 0-MD 1-quasi-New 2-CG
   NFREE  =      0    steps in history (QN), initial steepest desc. (CG)
   ISIF   =      2    stress and relaxation
   IWAVPR =     10    prediction:  0-non 1-charg 2-wave 3-comb
   ISYM   =      2    0-nonsym 1-usesym 2-fastsym
   LCORR  =      T    Harris-Foulkes like correction to forces

   POTIM  =   0.50    time-step for ionic-motion
   TEIN   =    0.0    initial temperature
   TEBEG  =    0.0;   TEEND  =   0.0 temperature during run
   SMASS  =  -3.00    Nose mass-parameter (am)
   estimated Nose-frequenzy (Omega)   =  0.10E-29 period in steps =****** mass=  -0.198E-27a.u.
   NPACO  =    256;   APACO  = 16.0  distance and # of slots for P.C.
   PSTRESS=    0.0 pullay stress

  Mass of Ions in am
   POMASS =  47.88
  Ionic Valenz
   ZVAL   =  10.00
  Atomic Wigner-Seitz radii
   NELECT =      20.0000    total number of electrons
   NUPDOWN=      -1.0000    fix difference up-down

 DOS related values:
   EMIN   =  10.00;   EMAX   =-10.00  energy-range for DOS
   ISMEAR =     0;   SIGMA  =   0.01  broadening in eV -4-tet -1-fermi 0-gaus

 Electronic relaxation 2 (details)
   IALGO  =     38    algorithm
   LDIAG  =      T    sub-space diagonalisation
   IMIX   =      4    mixing-type and parameters
     AMIX     =   0.40;   BMIX     =  1.00
     AMIX_MAG =   1.60;   BMIX_MAG =  1.00
     AMIN     =   0.10
     WC   =   100.;   INIMIX=   1;  MIXPRE=   1

 Intra band minimization:
   WEIMIN = 0.0000     energy-eigenvalue tresh-hold
   EBREAK =  0.18E-09  absolut break condition
   DEPER  =   0.30     relativ break condition

   TIME   =   0.10     timestep for ELM

  volume/ion in A,a.u.               =      17.12       115.51
  Fermi-wavevector in a.u.,eV,Ry     =   1.368585 25.484057  1.873025

 Second variation
   LSECVAR=     F    do a second variation

 Write flags
   LWAVE  =      F    write WAVECAR
   LCHARG =      F    write CHGCAR
   LVTOT  =      F    write LOCPOT, local potential
   LELF   =      F    write electronic localiz. function (ELF)
   LORBIT =      0    0 simple, 1 ext, 2 COOP (PROOUT)

 Dipole corrections
   IDIPOL =      0    1-x, 2-y, 3-z
   LDIPOL =      F    correct potential

 Static calculation
 charge density will be updated during run
 non-spin polarized calculation
 Variant of blocked Davidson
 Davidson routine will perform the subspace rotation
 performe sub-space diagonalisation
    after iterative eigenvector-optimisation
 modified Broyden-mixing scheme, WC =      100.0
 initial mixing is a Kerker type mixing with AMIX =  0.4000 and BMIX =      1.0000
 Hartree-type preconditioning will be used
 using additional bands            6
 reciprocal scheme for non local part
 use partial core corrections
 calculate Harris-corrections to forces
   (improved forces if not selfconsistent)
 use gradient corrections
 use of overlap-Matrix (Vanderbilt PP)
 Gauss-broadening in eV      SIGMA  =   0.01

  energy-cutoff  :      500.00
  volume of cell :       34.23
      direct lattice vectors                 reciprocal lattice vectors
     2.940222367  0.008255147  0.000000000     0.339563460  0.194777930  0.000000000
    -1.462961957  2.550434870  0.000000000    -0.001099086  0.391459547  0.000000000
     0.000000000  0.000000000  4.557699861     0.000000000  0.000000000  0.219408919

  length of vectors
     2.940233955  2.940233956  4.557699861     0.391461090  0.391461090  0.219408919

 k-points in units of 2pi/SCALE and weight: Automatic mesh
   0.00000000  0.00000000  0.00000000       0.008
   0.06791269  0.03895559  0.00000000       0.032
   0.13582538  0.07791117  0.00000000       0.032
   0.06769287  0.11724750  0.00000000       0.016
   0.13560557  0.15620308  0.00000000       0.032
  -0.13604520  0.00038074  0.00000000       0.032
  -0.06813251  0.03933632  0.00000000       0.016
   0.13538575  0.23449499  0.00000000       0.016
  -0.13626502  0.07867265  0.00000000       0.016
   0.00000000  0.00000000  0.04388178       0.016
   0.06791269  0.03895559  0.04388178       0.064
   0.13582538  0.07791117  0.04388178       0.064
   0.06769287  0.11724750  0.04388178       0.032
   0.13560557  0.15620308  0.04388178       0.064
  -0.13604520  0.00038074  0.04388178       0.064
  -0.06813251  0.03933632  0.04388178       0.032
   0.13538575  0.23449499  0.04388178       0.032
  -0.13626502  0.07867265  0.04388178       0.032
   0.00000000  0.00000000  0.08776357       0.016
   0.06791269  0.03895559  0.08776357       0.064
   0.13582538  0.07791117  0.08776357       0.064
   0.06769287  0.11724750  0.08776357       0.032
   0.13560557  0.15620308  0.08776357       0.064
  -0.13604520  0.00038074  0.08776357       0.064
  -0.06813251  0.03933632  0.08776357       0.032
   0.13538575  0.23449499  0.08776357       0.032
  -0.13626502  0.07867265  0.08776357       0.032

 k-points in reciprocal lattice and weights: Automatic mesh
   0.00000000  0.00000000  0.00000000       0.008
   0.20000000  0.00000000  0.00000000       0.032
   0.40000000  0.00000000  0.00000000       0.032
   0.20000000  0.20000000  0.00000000       0.016
   0.40000000  0.20000000  0.00000000       0.032
  -0.40000000  0.20000000  0.00000000       0.032
  -0.20000000  0.20000000  0.00000000       0.016
   0.40000000  0.40000000  0.00000000       0.016
  -0.40000000  0.40000000  0.00000000       0.016
   0.00000000  0.00000000  0.20000000       0.016
   0.20000000  0.00000000  0.20000000       0.064
   0.40000000  0.00000000  0.20000000       0.064
   0.20000000  0.20000000  0.20000000       0.032
   0.40000000  0.20000000  0.20000000       0.064
  -0.40000000  0.20000000  0.20000000       0.064
  -0.20000000  0.20000000  0.20000000       0.032
   0.40000000  0.40000000  0.20000000       0.032
  -0.40000000  0.40000000  0.20000000       0.032
   0.00000000  0.00000000  0.40000000       0.016
   0.20000000  0.00000000  0.40000000       0.064
   0.40000000  0.00000000  0.40000000       0.064
   0.20000000  0.20000000  0.40000000       0.032
   0.40000000  0.20000000  0.40000000       0.064
  -0.40000000  0.20000000  0.40000000       0.064
  -0.20000000  0.20000000  0.40000000       0.032
   0.40000000  0.40000000  0.40000000       0.032
  -0.40000000  0.40000000  0.40000000       0.032

 position of ions in fractional coordinates (direct lattice)
   0.33223018  0.66776982  0.25000000
   0.66776982  0.33223018  0.75000000

 position of ions in cartesian coordinates  (Angst):
  -0.00009122  1.70584603  1.13942497
   1.47735163  0.85284398  3.41827490

 k-point  1 :  0.00000.00000.0000  plane waves:    881
 k-point  2 :  0.20000.00000.0000  plane waves:    868
 k-point  3 :  0.40000.00000.0000  plane waves:    866
 k-point  4 :  0.20000.20000.0000  plane waves:    869
 k-point  5 :  0.40000.20000.0000  plane waves:    880
 k-point  6 :  -.40000.20000.0000  plane waves:    868
 k-point  7 :  -.20000.20000.0000  plane waves:    875
 k-point  8 :  0.40000.40000.0000  plane waves:    874
 k-point  9 :  -.40000.40000.0000  plane waves:    872
 k-point 10 :  0.00000.00000.2000  plane waves:    897
 k-point 11 :  0.20000.00000.2000  plane waves:    870
 k-point 12 :  0.40000.00000.2000  plane waves:    866
 k-point 13 :  0.20000.20000.2000  plane waves:    867
 k-point 14 :  0.40000.20000.2000  plane waves:    867
 k-point 15 :  -.40000.20000.2000  plane waves:    870
 k-point 16 :  -.20000.20000.2000  plane waves:    868
 k-point 17 :  0.40000.40000.2000  plane waves:    871
 k-point 18 :  -.40000.40000.2000  plane waves:    864
 k-point 19 :  0.00000.00000.4000  plane waves:    876
 k-point 20 :  0.20000.00000.4000  plane waves:    881
 k-point 21 :  0.40000.00000.4000  plane waves:    866
 k-point 22 :  0.20000.20000.4000  plane waves:    863
 k-point 23 :  0.40000.20000.4000  plane waves:    865
 k-point 24 :  -.40000.20000.4000  plane waves:    864
 k-point 25 :  -.20000.20000.4000  plane waves:    883
 k-point 26 :  0.40000.40000.4000  plane waves:    866
 k-point 27 :  -.40000.40000.4000  plane waves:    868

 maximum and minimum number of plane-waves per node :    897   863

 maximum number of plane-waves:    897
 maximal index in each direction:
   IXMAX=  5   IYMAX=  5   IZMAX=  8
   IXMIN= -5   IYMIN= -5   IZMIN= -8

 NGX is ok and might be reduce to  22
 NGY is ok and might be reduce to  22
 NGZ is ok and might be reduce to  34

 parallel 3dFFT wavefunction:
    minimum data exchange during FFTs selected (reduces bandwidth)
 parallel 3dFFT charge:
    minimum data exchange during FFTs selected (reduces bandwidth)

Broyden mixing: mesh for mixing (old mesh)
   NGX = 11   NGY = 11   NGZ = 17
  (NGX  = 48   NGY  = 48   NGZ  = 72)
 gives a total of   2057 points
 initial charge density was supplied:
 charge density of overlapping atoms calculated
 number of electron   20.0000000 magnetization
 keeping initial charge density in first step

 Maximum index for augmentation-charges         5680 (set IRDMAX)

 First call to EWALD:  gamma=   0.546
 Maximum number of real-space cells 3x 3x 2
 Maximum number of reciprocal cells 3x 3x 4

----------------------------------------- Iteration    1(   1)  ---------------------------------------

 eigenvalue-minimisations  :   864
 total energy-change (2. order) : 0.1534073E+03  (-0.1094020E+04)
 number of electron   20.0000000 magnetization
 augmentation part    20.0000000 magnetization

 Free energy of the ion-electron system (eV)
  alpha Z        PSCENC =       127.41369329
  Ewald energy   TEWEN  =     -1613.11970941
  -1/2 Hartree   DENC   =      -440.47864614
  -V(xc)+E(xc)   XCENC  =        71.91093733
  PAW double counting   =      1428.40628957    -1426.98428199
  entropy T*S    EENTRO =        -0.00036108
  eigenvalues    EBANDS =       -78.49197777
  atomic energy  EATOM  =      2084.75134655
  free energy    TOTEN  =       153.40729033 eV

  energy without entropy =      153.40765141  energy(sigma->0) =      153.40747087

[...]

 eigenvalue-minimisations  :   880
 total energy-change (2. order) :-0.1667843E+03  (-0.1650723E+03)
 number of electron   20.0000000 magnetization
 augmentation part    20.0000000 magnetization

[...]

 Broyden mixing:
  rms(total) = 0.83799E+00    rms(broyden)= 0.83798E+00
  rms(prec ) = 0.19117E+01
  weight for this iteration     100.00

[...]

 eigenvalues of (default mixing * dielectric matrix)
  average eigenvalue GAMMA=   1.2391
  1.2391

[...]

 eigenvalue-minimisations  :   472
 total energy-change (2. order) :-0.2237493E-07  (-0.1182491E-09)
 number of electron   20.0000000 magnetization
 augmentation part     9.4257970 magnetization

 Broyden mixing:
  rms(total) = 0.21033E-05    rms(broyden)= 0.21032E-05
  rms(prec ) = 0.46630E-05
  weight for this iteration     100.00

 eigenvalues of (default mixing * dielectric matrix)
  average eigenvalue GAMMA=   1.5847
  2.7272  2.5913  2.4909  1.8385  1.1022  1.1022  0.9756  0.9756  1.0220  1.0220

[...]

----------------------------------------- Iteration    1(  16)  ---------------------------------------

 eigenvalue-minimisations  :   488
 total energy-change (2. order) : 0.2770321E-08  (-0.1287611E-10)
 number of electron   20.0000000 magnetization
 augmentation part     9.4257970 magnetization

 Free energy of the ion-electron system (eV)
  alpha Z        PSCENC =       127.41369329
  Ewald energy   TEWEN  =     -1613.11970941
  -1/2 Hartree   DENC   =      -390.23921377
  -V(xc)+E(xc)   XCENC  =        69.35286267
  PAW double counting   =      1430.30444264    -1435.84317435
  entropy T*S    EENTRO =        -0.00028070
  eigenvalues    EBANDS =      -288.40990172
  atomic energy  EATOM  =      2084.75134655
  free energy    TOTEN  =       -15.78993481 eV

  energy without entropy =      -15.78965410  energy(sigma->0) =      -15.78979446

 average (electrostatic) potential at core
  the test charge radii are     1.0397
  (the norm of the test charge is              1.0000)
       1 -50.9261       2 -50.9261

 E-fermi :   5.9055     XC(G=0): -11.4680     alpha+bet :-13.8900
   add alpha+bet to get absolut eigen values

 k-point   1 :       0.0000    0.0000    0.0000
  band No.  band energies     occupation
      1     -27.4134      2.00000
      2     -26.7232      2.00000
      3     -26.7160      2.00000
      4     -26.6381      2.00000
      5     -26.6014      2.00000
      6     -26.6002      2.00000
      7      -0.1474      2.00000
      8       3.3386      2.00000
      9       6.7474      0.00000
     10       6.8412      0.00000
     11       7.0689      0.00000
     12       7.0802      0.00000
     13       7.3179      0.00000
     14       7.3728      0.00000
     15       7.5318      0.00000
     16       7.5911      0.00000

[...]

 k-point  27 :      -0.4000    0.4000    0.4000
  band No.  band energies     occupation
      1     -27.2617      2.00000
      2     -27.2000      2.00000
      3     -26.8480      2.00000
      4     -26.7910      2.00000
      5     -26.7668      2.00000
      6     -26.7304      2.00000
      7       3.2781      2.00000
      8       3.6799      2.00000
      9       5.0620      2.00000
     10       5.4327      2.00000
     11       6.8490      0.00000
     12       7.2598      0.00000
     13       7.2748      0.00000
     14       8.1218      0.00000
     15       9.2514      0.00000
     16       9.4008      0.00000

 soft charge-density along one line, spin component           1
         0         1         2         3         4         5         6         7         8         9
 total charge-density along one line

------------------------ aborting loop because EDIFF is reached ----------------------------------------

  FREE ENERGIE OF THE ION-ELECTRON SYSTEM (eV)
  free  energy   TOTEN  =       -15.789935 eV

  energy  without entropy=      -15.789654  energy(sigma->0) =      -15.789794

  FORCE on cell =-STRESS in cart. coord.  units (eV/reduce length):
  Direction    X        Y        Z        XY       YZ       ZX
  Alpha Z    127.41    127.41    127.41
  Ewald     -548.77   -549.38   -514.97     -0.53      0.00      0.00
  Hartree    125.49    125.22    139.52     -0.23     -0.00     -0.00
  E(xc)      -94.31    -94.31    -94.28     -0.00     -0.00     -0.00
  Local      149.22    150.06    105.53      0.73     -0.00     -0.00
  n-local    -51.87    -44.44    -47.21     -2.15      0.12      0.31
  augment    102.18    102.19    100.43      0.01     -0.00     -0.00
  Kinetic    189.73    184.46    184.03      1.56     -0.22      0.48
  Total        0.16      0.15      0.47     -0.00      0.00     -0.00
  in kB        7.30      7.18     21.78     -0.10      0.00     -0.00

 VOLUME and BASIS-vectors are now :
  energy-cutoff  :      500.00
  volume of cell :       34.23
      direct lattice vectors                 reciprocal lattice vectors
     2.940222367  0.008255147  0.000000000     0.339563460  0.194777930  0.000000000
    -1.462961957  2.550434870  0.000000000    -0.001099086  0.391459547  0.000000000
     0.000000000  0.000000000  4.557699861     0.000000000  0.000000000  0.219408919

  length of vectors
     2.940233955  2.940233956  4.557699861     0.391461090  0.391461090  0.219408919

 FORCES acting on ions
    electron-ion (+dipol)            ewald-force                    non-local-force                 convergence-correction
   0.157E+00 -.907E-01 -.199E-11   -.124E+00 0.716E-01 -.183E-13   -.324E-01 0.187E-01 0.867E-18   -.707E-06 0.408E-06 -.333E-13
   -.157E+00 0.907E-01 0.286E-11   0.124E+00 -.716E-01 0.183E-13   0.324E-01 -.187E-01 -.434E-18   0.707E-06 -.408E-06 -.778E-16
   0.404E-12 0.196E-12 0.868E-12   0.640E-14 0.194E-14 0.000E+00   0.000E+00 -.278E-16 0.434E-18   -.385E-13 -.282E-13 -.334E-13

 POSITION                                       TOTAL-FORCE (eV/Angst)
     -0.00009      1.70585      1.13942         0.000517     -0.000299      0.000000
      1.47735      0.85284      3.41827        -0.000517      0.000299     -0.000000
    total drift:                                0.000000      0.000000      0.000000

 mean value of Nose-termostat <S>:     1.000 mean value of <T> :     0.000
 mean temperature <T/S>/<1/S>  :     0.000