 vasp.4.6.28 25Jul05 complex
 executed on             LinuxIFC date 2017.01.16  01:07:22

 INCAR:
 POTCAR:   PAW_PBE Au 06Sep2000
 POTCAR:   PAW_PBE Au 06Sep2000
   VRHFIN =Au: s1d10

   TITEL  = PAW_PBE Au 06Sep2000
   POMASS =  196.966; ZVAL   =   11.000    mass and valenz
   ENMAX  =  229.948; ENMIN  =  172.461 eV
   QCUT   =   -4.111; QGAM   =    8.222    optimization parameters

   Description
     l     E      TYP  RCUT    TYP  RCUT
     2   .000     23  2.500
     2   .000     23  2.500
     0   .000     23  2.500
     0   .000     23  2.500
     1  -.200     23  2.500
     1   .000     23  2.500
     3   .000      7   .000

 PAW_PBE Au 06Sep2000                   :

 POSCAR: Au
  positions in direct lattice

 ion  position               nearest neighbor table
   1  0.001  0.000  0.000-   9 3.09  11 3.09  17 3.09  21 3.09  25 3.10  27 3.10  29 3.10  31 3.10
                            10 3.11  12 3.11  18 3.11  22 3.11
   2  0.500  0.000  0.000-   9 3.10  10 3.10  11 3.10  12 3.10  17 3.10  18 3.10  21 3.10  22 3.10
                            26 3.10  28 3.10  30 3.10  32 3.10
   3  0.000  0.500  0.000-   9 3.10  10 3.10  11 3.10  12 3.10  19 3.10  20 3.10  23 3.10  24 3.10
                            25 3.10  27 3.10  29 3.10  31 3.10
   4  0.500  0.500  0.000-   9 3.10  10 3.10  11 3.10  12 3.10  19 3.10  20 3.10  23 3.10  24 3.10
                            26 3.10  28 3.10  30 3.10  32 3.10
   5  0.000  0.000  0.500-  13 3.10  14 3.10  15 3.10  16 3.10  17 3.10  18 3.10  21 3.10  22 3.10
                            25 3.10  27 3.10  29 3.10  31 3.10
   6  0.500  0.000  0.500-  13 3.10  14 3.10  15 3.10  16 3.10  17 3.10  18 3.10  21 3.10  22 3.10
                            26 3.10  28 3.10  30 3.10  32 3.10
   7  0.000  0.500  0.500-  13 3.10  14 3.10  15 3.10  16 3.10  19 3.10  20 3.10  23 3.10  24 3.10
                            25 3.10  27 3.10  29 3.10  31 3.10
   8  0.500  0.500  0.500-  13 3.10  14 3.10  15 3.10  16 3.10  19 3.10  20 3.10  23 3.10  24 3.10
                            26 3.10  28 3.10  30 3.10  32 3.10
   9  0.250  0.250  0.000-   1 3.09   2 3.10   3 3.10   4 3.10  17 3.10  19 3.10  21 3.10  23 3.10
                            25 3.10  26 3.10  29 3.10  30 3.10
  10  0.750  0.250  0.000-   2 3.10   3 3.10   4 3.10  18 3.10  20 3.10  22 3.10  24 3.10  25 3.10
                            26 3.10  29 3.10  30 3.10   1 3.11
  11  0.250  0.750  0.000-   1 3.09   2 3.10   3 3.10   4 3.10  17 3.10  19 3.10  21 3.10  23 3.10
                            27 3.10  28 3.10  31 3.10  32 3.10
  12  0.750  0.750  0.000-   2 3.10   3 3.10   4 3.10  18 3.10  20 3.10  22 3.10  24 3.10  27 3.10
                            28 3.10  31 3.10  32 3.10   1 3.11
  13  0.250  0.250  0.500-   5 3.10   6 3.10   7 3.10   8 3.10  17 3.10  19 3.10  21 3.10  23 3.10
                            25 3.10  26 3.10  29 3.10  30 3.10
  14  0.750  0.250  0.500-   5 3.10   6 3.10   7 3.10   8 3.10  18 3.10  20 3.10  22 3.10  24 3.10
                            25 3.10  26 3.10  29 3.10  30 3.10
  15  0.250  0.750  0.500-   5 3.10   6 3.10   7 3.10   8 3.10  17 3.10  19 3.10  21 3.10  23 3.10
                            27 3.10  28 3.10  31 3.10  32 3.10
  16  0.750  0.750  0.500-   5 3.10   6 3.10   7 3.10   8 3.10  18 3.10  20 3.10  22 3.10  24 3.10
                            27 3.10  28 3.10  31 3.10  32 3.10
  17  0.250  0.000  0.250-   1 3.09   2 3.10   5 3.10   6 3.10   9 3.10  11 3.10  13 3.10  15 3.10
                            25 3.10  26 3.10  27 3.10  28 3.10
  18  0.750  0.000  0.250-   2 3.10   5 3.10   6 3.10  10 3.10  12 3.10  14 3.10  16 3.10  25 3.10
                            26 3.10  27 3.10  28 3.10   1 3.11
  19  0.250  0.500  0.250-   3 3.10   4 3.10   7 3.10   8 3.10   9 3.10  11 3.10  13 3.10  15 3.10
                            25 3.10  26 3.10  27 3.10  28 3.10
  20  0.750  0.500  0.250-   3 3.10   4 3.10   7 3.10   8 3.10  10 3.10  12 3.10  14 3.10  16 3.10
                            25 3.10  26 3.10  27 3.10  28 3.10
  21  0.250  0.000  0.750-   1 3.09   2 3.10   5 3.10   6 3.10   9 3.10  11 3.10  13 3.10  15 3.10
                            29 3.10  30 3.10  31 3.10  32 3.10
  22  0.750  0.000  0.750-   2 3.10   5 3.10   6 3.10  10 3.10  12 3.10  14 3.10  16 3.10  29 3.10
                            30 3.10  31 3.10  32 3.10   1 3.11
  23  0.250  0.500  0.750-   3 3.10   4 3.10   7 3.10   8 3.10   9 3.10  11 3.10  13 3.10  15 3.10
                            29 3.10  30 3.10  31 3.10  32 3.10
  24  0.750  0.500  0.750-   3 3.10   4 3.10   7 3.10   8 3.10  10 3.10  12 3.10  14 3.10  16 3.10
                            29 3.10  30 3.10  31 3.10  32 3.10
  25  0.000  0.250  0.250-   3 3.10   5 3.10   7 3.10   9 3.10  10 3.10  13 3.10  14 3.10  17 3.10
                            18 3.10  19 3.10  20 3.10   1 3.10
  26  0.500  0.250  0.250-   2 3.10   4 3.10   6 3.10   8 3.10   9 3.10  10 3.10  13 3.10  14 3.10
                            17 3.10  18 3.10  19 3.10  20 3.10
  27  0.000  0.750  0.250-   3 3.10   5 3.10   7 3.10  11 3.10  12 3.10  15 3.10  16 3.10  17 3.10
                            18 3.10  19 3.10  20 3.10   1 3.10
  28  0.500  0.750  0.250-   2 3.10   4 3.10   6 3.10   8 3.10  11 3.10  12 3.10  15 3.10  16 3.10
                            17 3.10  18 3.10  19 3.10  20 3.10
  29  0.000  0.250  0.750-   3 3.10   5 3.10   7 3.10   9 3.10  10 3.10  13 3.10  14 3.10  21 3.10
                            22 3.10  23 3.10  24 3.10   1 3.10
  30  0.500  0.250  0.750-   2 3.10   4 3.10   6 3.10   8 3.10   9 3.10  10 3.10  13 3.10  14 3.10
                            21 3.10  22 3.10  23 3.10  24 3.10
  31  0.000  0.750  0.750-   3 3.10   5 3.10   7 3.10  11 3.10  12 3.10  15 3.10  16 3.10  21 3.10
                            22 3.10  23 3.10  24 3.10   1 3.10
  32  0.500  0.750  0.750-   2 3.10   4 3.10   6 3.10   8 3.10  11 3.10  12 3.10  15 3.10  16 3.10
                            21 3.10  22 3.10  23 3.10  24 3.10

  LATTYP: Found a simple cubic cell.
 ALAT       =     8.7629889949

  Lattice vectors:

 A1 = (   8.7629889949,   0.0000000000,   0.0000000000)
 A2 = (   0.0000000000,   8.7629889949,   0.0000000000)
 A3 = (   0.0000000000,   0.0000000000,   8.7629889949)
 Subroutine PRICEL returns:
 Original cell was already a primitive cell.

Analysis of symmetry for initial positions (statically):

 Routine SETGRP: Setting up the symmetry group for a
 simple cubic supercell.

 Subroutine GETGRP returns: Found  8 space group operations
 (whereof  8 operations were pure point group operations)
 out of a pool of 48 trial point group operations.

The static configuration has the point symmetry C_4v.

Analysis of symmetry for dynamics (positions and initial velocities):

 Subroutine DYNSYM returns: Found  8 space group operations
 (whereof  8 operations were pure point group operations)
 out of a pool of  8 trial space group operations
 (whereof  8 operations were pure point group operations)
 and found also     1 'primitive' translations

The dynamic configuration has the point symmetry C_4v.

 KPOINTS: Automatic mesh

Automatic generation of k-mesh.

 Subroutine IBZKPT returns following result:

 Found    405 irreducible k-points:

 Following reciprocal coordinates:
            Coordinates               Weight
  0.000000  0.000000  0.000000      1.000000
  0.062500  0.000000  0.000000      2.000000
  0.125000  0.000000  0.000000      2.000000
  0.187500  0.000000  0.000000      2.000000
  0.250000  0.000000  0.000000      2.000000
  0.312500  0.000000  0.000000      2.000000
  0.375000  0.000000  0.000000      2.000000
  0.437500  0.000000  0.000000      2.000000
  0.500000  0.000000  0.000000      1.000000
  0.000000  0.062500  0.000000      4.000000
  0.062500  0.062500  0.000000      8.000000
  0.125000  0.062500  0.000000      8.000000
  0.187500  0.062500  0.000000      8.000000
  0.250000  0.062500  0.000000      8.000000
  0.312500  0.062500  0.000000      8.000000
  0.375000  0.062500  0.000000      8.000000
  0.437500  0.062500  0.000000      8.000000
  0.500000  0.062500  0.000000      4.000000
  0.000000  0.125000  0.000000      4.000000
  0.062500  0.125000  0.000000      8.000000
  0.125000  0.125000  0.000000      8.000000
  0.187500  0.125000  0.000000      8.000000
  0.250000  0.125000  0.000000      8.000000
  0.312500  0.125000  0.000000      8.000000
  0.375000  0.125000  0.000000      8.000000
  0.437500  0.125000  0.000000      8.000000
  0.500000  0.125000  0.000000      4.000000
  0.000000  0.187500  0.000000      4.000000
  0.062500  0.187500  0.000000      8.000000
  0.125000  0.187500  0.000000      8.000000
  0.187500  0.187500  0.000000      8.000000
  0.250000  0.187500  0.000000      8.000000
  0.312500  0.187500  0.000000      8.000000
  0.375000  0.187500  0.000000      8.000000
  0.437500  0.187500  0.000000      8.000000
  0.500000  0.187500  0.000000      4.000000
  0.000000  0.250000  0.000000      4.000000
  0.062500  0.250000  0.000000      8.000000
  0.125000  0.250000  0.000000      8.000000
  0.187500  0.250000  0.000000      8.000000
  0.250000  0.250000  0.000000      8.000000
  0.312500  0.250000  0.000000      8.000000
  0.375000  0.250000  0.000000      8.000000
  0.437500  0.250000  0.000000      8.000000
  0.500000  0.250000  0.000000      4.000000
  0.000000  0.312500  0.000000      4.000000
  0.062500  0.312500  0.000000      8.000000
  0.125000  0.312500  0.000000      8.000000
  0.187500  0.312500  0.000000      8.000000
  0.250000  0.312500  0.000000      8.000000
  0.312500  0.312500  0.000000      8.000000
  0.375000  0.312500  0.000000      8.000000
  0.437500  0.312500  0.000000      8.000000
  0.500000  0.312500  0.000000      4.000000
  0.000000  0.375000  0.000000      4.000000
  0.062500  0.375000  0.000000      8.000000
  0.125000  0.375000  0.000000      8.000000
  0.187500  0.375000  0.000000      8.000000
  0.250000  0.375000  0.000000      8.000000
  0.312500  0.375000  0.000000      8.000000
[...]
  0.187500  0.500000  0.437500      8.000000
  0.250000  0.500000  0.437500      8.000000
  0.312500  0.500000  0.437500      8.000000
  0.375000  0.500000  0.437500      8.000000
  0.437500  0.500000  0.437500      8.000000
  0.500000  0.500000  0.437500      4.000000
  0.000000  0.500000  0.500000      1.000000
  0.062500  0.500000  0.500000      2.000000
  0.125000  0.500000  0.500000      2.000000
  0.187500  0.500000  0.500000      2.000000
  0.250000  0.500000  0.500000      2.000000
  0.312500  0.500000  0.500000      2.000000
  0.375000  0.500000  0.500000      2.000000
  0.437500  0.500000  0.500000      2.000000
  0.500000  0.500000  0.500000      1.000000

 Following cartesian coordinates:
            Coordinates               Weight
  0.000000  0.000000  0.000000      1.000000
  0.007132  0.000000  0.000000      2.000000
  0.014265  0.000000  0.000000      2.000000
  0.021397  0.000000  0.000000      2.000000
  0.028529  0.000000  0.000000      2.000000
  0.035661  0.000000  0.000000      2.000000
  0.042794  0.000000  0.000000      2.000000
  0.049926  0.000000  0.000000      2.000000
  0.057058  0.000000  0.000000      1.000000
  0.000000  0.007132  0.000000      4.000000
[...]
 number of electron  352.0000007 magnetization
 augmentation part   130.3511120 magnetization

[...]

 eigenvalue-minimisations  : 97000
 total energy-change (2. order) :-0.3021705E-07  (-0.5887843E-10)
 number of electron  352.0000007 magnetization
 augmentation part   130.3511041 magnetization

 Broyden mixing:
  rms(total) = 0.33578E-05    rms(broyden)= 0.33560E-05
  rms(prec ) = 0.37797E-05
  weight for this iteration     100.00

 eigenvalues of (default mixing * dielectric matrix)
  average eigenvalue GAMMA=   1.6077
  2.9352  2.7099  2.4725  2.4725  1.0594  1.0594  1.0238  0.8364  0.8364  0.6714

[...]

----------------------------------------- Iteration    1(  16)  ---------------------------------------

 eigenvalue-minimisations  : 95600
 total energy-change (2. order) :-0.5460606E-08  ( 0.5491488E-11)
 number of electron  352.0000007 magnetization
 augmentation part   130.3511041 magnetization

 Free energy of the ion-electron system (eV)
  alpha Z        PSCENC =      2849.96344217
  Ewald energy   TEWEN  =    -29171.93464031
  -1/2 Hartree   DENC   =     -4532.99997305
  -V(xc)+E(xc)   XCENC  =       455.47009610
  PAW double counting   =     23519.56492369   -22826.72869911
  entropy T*S    EENTRO =        -0.00052989
  eigenvalues    EBANDS =       -27.49136916
  atomic energy  EATOM  =     29633.79835877
  free energy    TOTEN  =      -100.35839078 eV

  energy without entropy =     -100.35786089  energy(sigma->0) =     -100.35812584

 average (electrostatic) potential at core
  the test charge radii are     1.2098
  (the norm of the test charge is              1.0000)
       1 -47.3029       2 -47.3029       3 -47.3029       4 -47.3029       5 -47.3029
       6 -47.3029       7 -47.3029       8 -47.3029       9 -47.3041      10 -47.3017
      11 -47.3041      12 -47.3017      13 -47.3030      14 -47.3028      15 -47.3030
      16 -47.3028      17 -47.3041      18 -47.3017      19 -47.3030      20 -47.3028
      21 -47.3041      22 -47.3017      23 -47.3030      24 -47.3028      25 -47.3029
      26 -47.3029      27 -47.3029      28 -47.3029      29 -47.3029      30 -47.3029
      31 -47.3029      32 -47.3029

 E-fermi :   3.3360     XC(G=0): -11.4919     alpha+bet : -8.2527
   add alpha+bet to get absolut eigen values

 k-point   1 :       0.0000    0.0000    0.0000
  band No.  band energies     occupation
      1      -4.4985      2.00000
      2      -2.4498      2.00000
      3      -2.4469      2.00000
      4      -2.4469      2.00000
      5      -2.4469      2.00000
      6      -2.4469      2.00000
      7      -2.4440      2.00000
      8      -2.3173      2.00000
      9      -2.3173      2.00000
     10      -2.3173      2.00000
     11      -2.3173      2.00000
     12      -2.0680      2.00000
     13      -2.0680      2.00000
     14      -2.0680      2.00000
     15      -1.8607      2.00000
     16      -1.8607      2.00000
     17      -1.8607      2.00000
     18      -1.3835      2.00000
     19      -1.3822      2.00000
     20      -1.3822      2.00000
     21      -1.3808      2.00000
     22      -1.3806      2.00000
     23      -1.3805      2.00000
     24      -1.3805      2.00000
     25      -1.3805      2.00000
     26      -1.3804      2.00000
     27      -1.3789      2.00000
     28      -1.3789      2.00000
     29      -1.3777      2.00000
     30      -1.2460      2.00000
     31      -1.2443      2.00000
     32      -1.2443      2.00000
     33      -1.2443      2.00000
     34      -1.2443      2.00000
     35      -1.2426      2.00000
     36      -1.1915      2.00000
     37      -1.1899      2.00000
     38      -1.1899      2.00000
     39      -1.1899      2.00000
     40      -1.1899      2.00000
     41      -1.1882      2.00000
     42      -0.7521      2.00000
     43      -0.7500      2.00000
     44      -0.7500      2.00000
     45      -0.7491      2.00000
     46      -0.7490      2.00000
     47      -0.7490      2.00000
     48      -0.7490      2.00000
     49      -0.7490      2.00000
     50      -0.7490      2.00000
     51      -0.7481      2.00000
     52      -0.7481      2.00000
     53      -0.7462      2.00000
     54      -0.6962      2.00000
     55      -0.6962      2.00000
     56      -0.6943      2.00000
     57      -0.6943      2.00000
     58      -0.6943      2.00000
     59      -0.6943      2.00000
     60      -0.6943      2.00000
[...]
    202       9.0335      0.00000
    203       9.0335      0.00000
    204       9.0339      0.00000
    205       9.0339      0.00000
    206       9.0339      0.00000
    207       9.0339      0.00000
    208       9.0342      0.00000
    209       9.0342      0.00000
    210       9.0370      0.00000
    211       9.0370      0.00000
    212      10.8122      0.00000
    213      10.8130      0.00000
    214      10.8134      0.00000
    215      10.8135      0.00000
    216      10.8140      0.00000

[...]

 k-point 405 :       0.5000    0.5000    0.5000
  band No.  band energies     occupation
      1      -2.9834      2.00000
      2      -2.9804      2.00000
      3      -2.9804      2.00000
      4      -2.9799      2.00000
      5      -2.9797      2.00000
      6      -2.9792      2.00000
      7      -2.9792      2.00000
      8      -2.9763      2.00000
      9      -1.6468      2.00000
     10      -1.6468      2.00000
     11      -1.6468      2.00000
     12      -1.6466      2.00000
     13      -1.6463      2.00000
     14      -1.6455      2.00000
     15      -1.6449      2.00000
     16      -1.6449      2.00000
     17      -1.6449      2.00000
     18      -1.6448      2.00000
     19      -1.6448      2.00000
     20      -1.6447      2.00000
     21      -1.6447      2.00000
     22      -1.6446      2.00000
     23      -1.6446      2.00000
     24      -1.6445      2.00000
     25      -1.6445      2.00000
     26      -1.6445      2.00000
     27      -1.6439      2.00000
     28      -1.6431      2.00000
     29      -1.6428      2.00000
     30      -1.6427      2.00000
     31      -1.6427      2.00000
     32      -1.6426      2.00000
     33      -0.9553      2.00000
     34      -0.9523      2.00000
     35      -0.9522      2.00000
     36      -0.9519      2.00000
     37      -0.9519      2.00000
     38      -0.9515      2.00000
     39      -0.9511      2.00000
     40      -0.9511      2.00000
     41      -0.9509      2.00000
     42      -0.9509      2.00000
     43      -0.9509      2.00000
     44      -0.9509      2.00000
     45      -0.9508      2.00000
     46      -0.9508      2.00000
     47      -0.9508      2.00000
     48      -0.9508      2.00000
     49      -0.9506      2.00000
     50      -0.9506      2.00000
     51      -0.9502      2.00000
     52      -0.9498      2.00000
     53      -0.9498      2.00000
     54      -0.9496      2.00000
     55      -0.9495      2.00000
     56      -0.9465      2.00000
     57      -0.4461      2.00000
     58      -0.4448      2.00000
     59      -0.4444      2.00000
     60      -0.4444      2.00000
[...]
    202       8.1305      0.00000
    203       8.1306      0.00000
    204       8.1306      0.00000
    205       8.1306      0.00000
    206       8.1307      0.00000
    207       8.1307      0.00000
    208       8.1307      0.00000
    209       8.1308      0.00000
    210       8.1312      0.00000
    211       8.1312      0.00000
    212       8.1316      0.00000
    213       8.1321      0.00000
    214       8.1332      0.00000
    215       8.1351      0.00000
    216       8.1351      0.00000

 soft charge-density along one line, spin component           1
         0         1         2         3         4         5         6         7         8         9
 total charge-density along one line

------------------------ aborting loop because EDIFF is reached ----------------------------------------

  FREE ENERGIE OF THE ION-ELECTRON SYSTEM (eV)
  free  energy   TOTEN  =      -100.358391 eV

  energy  without entropy=     -100.357861  energy(sigma->0) =     -100.358126

  FORCE on cell =-STRESS in cart. coord.  units (eV/reduce length):
  Direction    X        Y        Z        XY       YZ       ZX
  Alpha Z   2849.96   2849.96   2849.96
  Ewald    -9724.04  -9724.01  -9724.01      0.00      0.00      0.00
  Hartree   1510.99   1511.01   1511.01      0.00     -0.00     -0.00
  E(xc)    -1574.29  -1574.29  -1574.29     -0.00     -0.00     -0.00
  Local     2314.36   2314.30   2314.30      0.00     -0.00      0.00
  n-local  -1688.08  -1694.27  -1681.88      3.55      2.52      1.50
  augment   1377.10   1377.10   1377.10     -0.00     -0.00     -0.00
  Kinetic   4880.39   4874.38   4886.40      0.85     -0.30     -1.46
  Total      -53.61    -53.61    -53.61      0.00      0.00      0.00
  in kB     -127.64   -127.64   -127.64      0.00      0.00      0.00

 VOLUME and BASIS-vectors are now :
  energy-cutoff  :      800.00
  volume of cell :      672.91
      direct lattice vectors                 reciprocal lattice vectors
     8.762988995  0.000000000  0.000000000     0.114116314  0.000000000  0.000000000
     0.000000000  8.762988995  0.000000000     0.000000000  0.114116314  0.000000000
     0.000000000  0.000000000  8.762988995     0.000000000  0.000000000  0.114116314

  length of vectors
     8.762988995  8.762988995  8.762988995     0.114116314  0.114116314  0.114116314

 FORCES acting on ions
    electron-ion (+dipol)            ewald-force                    non-local-force                 convergence-correction
   0.338E+01 -.616E-13 0.129E-07   -.336E+01 -.462E-13 0.497E-13   -.357E-01 0.548E-19 -.452E-20   -.399E-04 -.197E-12 -.330E-12
   -.878E+00 -.412E-13 -.130E-07   0.887E+00 -.142E-13 -.142E-13   -.562E-02 -.687E-20 -.272E-20   -.129E-04 -.239E-12 -.499E-12
   0.280E+00 0.401E-12 0.421E-11   -.281E+00 -.426E-13 -.142E-13   0.744E-03 0.455E-20 0.258E-20   0.211E-05 0.208E-12 -.246E-12
   -.225E+00 -.912E-12 0.553E-11   0.221E+00 -.426E-13 0.142E-13   0.295E-02 -.102E-19 0.722E-22   -.713E-08 0.258E-12 -.338E-12
   0.280E+00 -.614E-13 0.170E-10   -.281E+00 -.178E-13 -.711E-13   0.744E-03 0.932E-20 0.373E-21   0.244E-05 -.224E-12 0.419E-12
   -.225E+00 -.687E-13 0.137E-10   0.221E+00 -.142E-13 0.142E-13   0.295E-02 0.695E-21 0.498E-20   -.866E-07 -.289E-12 0.573E-12
   0.117E+00 0.401E-12 0.492E-11   -.116E+00 -.426E-13 0.142E-13   -.986E-03 -.202E-20 -.612E-20   -.489E-06 0.236E-12 0.329E-12
   -.108E+00 -.127E-11 0.143E-10   0.108E+00 -.142E-13 -.142E-13   -.264E-03 0.591E-20 0.174E-22   0.139E-05 0.310E-12 0.418E-12
   -.428E+00 -.818E+00 -.223E-11   0.426E+00 0.819E+00 -.639E-13   0.369E-02 0.216E-02 0.127E-20   0.750E-05 0.385E-05 -.398E-12
   -.430E+00 0.812E+00 -.883E-12   0.429E+00 -.813E+00 -.711E-14   0.361E-02 -.207E-02 0.938E-20   0.742E-05 -.613E-05 -.292E-12
   -.428E+00 0.818E+00 0.113E-11   0.426E+00 -.819E+00 0.000E+00   0.369E-02 -.216E-02 0.130E-20   0.750E-05 -.385E-05 -.392E-12
   -.430E+00 -.812E+00 -.138E-11   0.429E+00 0.813E+00 0.000E+00   0.361E-02 0.207E-02 -.516E-20   0.742E-05 0.613E-05 -.328E-12
   -.124E-01 -.673E-01 -.753E-12   0.130E-01 0.673E-01 0.355E-14   -.339E-03 0.474E-05 0.187E-21   -.139E-05 -.114E-05 0.472E-12
   -.137E-01 0.672E-01 0.361E-11   0.143E-01 -.673E-01 -.107E-13   -.331E-03 -.620E-06 -.145E-20   -.232E-05 0.101E-05 0.380E-12
   -.124E-01 0.673E-01 -.878E-12   0.130E-01 -.673E-01 -.128E-12   -.339E-03 -.474E-05 -.286E-20   -.139E-05 0.114E-05 0.471E-12
   -.137E-01 -.672E-01 0.373E-11   0.143E-01 0.673E-01 -.142E-13   -.331E-03 0.620E-06 0.152E-21   -.232E-05 -.101E-05 0.410E-12
   -.428E+00 -.679E-13 -.818E+00   0.426E+00 0.711E-13 0.819E+00   0.369E-02 0.532E-20 0.216E-02   0.743E-05 -.220E-12 0.392E-05
   -.430E+00 -.869E-14 0.812E+00   0.429E+00 0.711E-13 -.813E+00   0.361E-02 -.465E-20 -.207E-02   0.735E-05 -.241E-12 -.620E-05
   -.124E-01 0.556E-12 -.673E-01   0.130E-01 0.568E-13 0.673E-01   -.339E-03 -.101E-20 0.474E-05   -.137E-05 0.239E-12 -.107E-05
   -.137E-01 -.130E-11 0.672E-01   0.143E-01 0.284E-13 -.673E-01   -.331E-03 -.742E-21 -.620E-06   -.230E-05 0.255E-12 0.945E-06
   -.428E+00 -.677E-13 0.818E+00   0.426E+00 0.426E-13 -.819E+00   0.369E-02 0.458E-20 -.216E-02   0.743E-05 -.217E-12 -.392E-05
   -.430E+00 -.655E-13 -.812E+00   0.429E+00 0.142E-13 0.813E+00   0.361E-02 -.691E-20 0.207E-02   0.735E-05 -.274E-12 0.620E-05
   -.124E-01 0.359E-12 0.673E-01   0.130E-01 0.284E-13 -.673E-01   -.339E-03 -.209E-20 -.474E-05   -.137E-05 0.236E-12 0.107E-05
   -.137E-01 -.129E-11 -.672E-01   0.143E-01 0.284E-13 0.673E-01   -.331E-03 -.175E-20 0.620E-06   -.230E-05 0.286E-12 -.945E-06
   0.526E+00 0.190E-02 0.190E-02   -.530E+00 -.190E-02 -.190E-02   0.248E-02 0.638E-05 0.638E-05   0.275E-05 -.640E-06 -.640E-06
   -.297E+00 -.562E-03 -.562E-03   0.298E+00 0.570E-03 0.570E-03   -.318E-03 -.597E-05 -.597E-05   -.199E-05 -.796E-07 -.794E-07
   0.526E+00 -.190E-02 0.190E-02   -.530E+00 0.190E-02 -.190E-02   0.248E-02 -.638E-05 0.638E-05   0.275E-05 0.640E-06 -.640E-06
   -.297E+00 0.562E-03 -.562E-03   0.298E+00 -.570E-03 0.570E-03   -.318E-03 0.597E-05 -.597E-05   -.199E-05 0.796E-07 -.794E-07
   0.526E+00 0.190E-02 -.190E-02   -.530E+00 -.190E-02 0.190E-02   0.248E-02 0.638E-05 -.638E-05   0.275E-05 -.640E-06 0.640E-06
   -.297E+00 -.562E-03 0.562E-03   0.298E+00 0.570E-03 -.570E-03   -.318E-03 -.597E-05 0.597E-05   -.199E-05 -.796E-07 0.794E-07
   0.526E+00 -.190E-02 -.190E-02   -.530E+00 0.190E-02 0.190E-02   0.248E-02 -.638E-05 -.638E-05   0.275E-05 0.640E-06 0.640E-06
   -.297E+00 0.562E-03 0.562E-03   0.298E+00 -.570E-03 -.570E-03   -.318E-03 0.597E-05 0.597E-05   -.199E-05 0.796E-07 0.794E-07
   -.190E-05 -.220E-10 -.210E-10   -.483E-14 -.160E-12 0.208E-12   0.112E-05 -.458E-18 -.263E-18   0.208E-06 0.155E-12 0.762E-12

 POSITION                                       TOTAL-FORCE (eV/Angst)
      0.01000      0.00000      0.00000        -0.013617     -0.000000     -0.000000
      4.38149      0.00000      0.00000         0.003350      0.000000      0.000000
      0.00000      4.38149      0.00000        -0.000693     -0.000000      0.000000
      4.38149      4.38149      0.00000        -0.001648     -0.000000      0.000000
      0.00000      0.00000      4.38149        -0.000693      0.000000      0.000000
      4.38149      0.00000      4.38149        -0.001648      0.000000     -0.000000
      0.00000      4.38149      4.38149         0.000251     -0.000000      0.000000
      4.38149      4.38149      4.38149        -0.000077     -0.000000      0.000000
      2.19075      2.19075      0.00000         0.002281      0.003023      0.000000
      6.57224      2.19075      0.00000         0.002146     -0.002847      0.000000
      2.19075      6.57224      0.00000         0.002281     -0.003023     -0.000000
      6.57224      6.57224      0.00000         0.002146      0.002847      0.000000
      2.19075      2.19075      4.38149         0.000240      0.000083      0.000000
      6.57224      2.19075      4.38149         0.000238     -0.000081     -0.000000
      2.19075      6.57224      4.38149         0.000240     -0.000083     -0.000000
      6.57224      6.57224      4.38149         0.000238      0.000081     -0.000000
      2.19075      0.00000      2.19075         0.002281     -0.000000      0.003023
      6.57224      0.00000      2.19075         0.002146      0.000000     -0.002847
      2.19075      4.38149      2.19075         0.000240      0.000000      0.000083
      6.57224      4.38149      2.19075         0.000238     -0.000000     -0.000081
      2.19075      0.00000      6.57224         0.002281     -0.000000     -0.003023
      6.57224      0.00000      6.57224         0.002146     -0.000000      0.002847
      2.19075      4.38149      6.57224         0.000240      0.000000     -0.000083
      6.57224      4.38149      6.57224         0.000238     -0.000000      0.000081
      0.00000      2.19075      2.19075        -0.001812      0.000002      0.000002
      4.38149      2.19075      2.19075         0.000600      0.000002      0.000002
      0.00000      6.57224      2.19075        -0.001812     -0.000002      0.000002
      4.38149      6.57224      2.19075         0.000600     -0.000002      0.000002
      0.00000      2.19075      6.57224        -0.001812      0.000002     -0.000002
      4.38149      2.19075      6.57224         0.000600      0.000002     -0.000002
      0.00000      6.57224      6.57224        -0.001812     -0.000002     -0.000002
      4.38149      6.57224      6.57224         0.000600     -0.000002     -0.000002
    total drift:                               -0.000001     -0.000000     -0.000000

 mean value of Nose-termostat <S>:     1.000 mean value of <T> :     0.000
 mean temperature <T/S>/<1/S>  :     0.000