 vasp.4.6.28 25Jul05 complex
 executed on             LinuxIFC date 2017.01.10  08:53:53

 INCAR:
 POTCAR:   PAW_PBE Au 06Sep2000
 POTCAR:   PAW_PBE Au 06Sep2000
   VRHFIN =Au: s1d10

   TITEL  = PAW_PBE Au 06Sep2000
   POMASS =  196.966; ZVAL   =   11.000    mass and valenz
   ENMAX  =  229.948; ENMIN  =  172.461 eV
   QCUT   =   -4.111; QGAM   =    8.222    optimization parameters

   Description
     l     E      TYP  RCUT    TYP  RCUT
     2   .000     23  2.500
     2   .000     23  2.500
     0   .000     23  2.500
     0   .000     23  2.500
     1  -.200     23  2.500
     1   .000     23  2.500
     3   .000      7   .000

 PAW_PBE Au 06Sep2000                   :

 POSCAR: Au
  positions in direct lattice

 ion  position               nearest neighbor table
   1  0.001  0.000  0.000-   9 2.80  11 2.80  17 2.80  21 2.80  25 2.80  27 2.80  29 2.80  31 2.80
                            10 2.81  18 2.81  12 2.81  22 2.81
   2  0.500  0.000  0.000-   9 2.80  10 2.80  11 2.80  12 2.80  17 2.80  18 2.80  21 2.80  22 2.80
                            26 2.80  28 2.80  30 2.80  32 2.80
   3  0.000  0.500  0.000-   9 2.80  10 2.80  11 2.80  12 2.80  19 2.80  20 2.80  23 2.80  24 2.80
                            25 2.80  27 2.80  29 2.80  31 2.80
   4  0.500  0.500  0.000-   9 2.80  10 2.80  11 2.80  12 2.80  19 2.80  20 2.80  23 2.80  24 2.80
                            26 2.80  28 2.80  30 2.80  32 2.80
   5  0.000  0.000  0.500-  13 2.80  14 2.80  15 2.80  16 2.80  17 2.80  18 2.80  21 2.80  22 2.80
                            25 2.80  27 2.80  29 2.80  31 2.80
   6  0.500  0.000  0.500-  13 2.80  14 2.80  15 2.80  16 2.80  17 2.80  18 2.80  21 2.80  22 2.80
                            26 2.80  28 2.80  30 2.80  32 2.80
   7  0.000  0.500  0.500-  13 2.80  14 2.80  15 2.80  16 2.80  19 2.80  20 2.80  23 2.80  24 2.80
                            25 2.80  27 2.80  29 2.80  31 2.80
   8  0.500  0.500  0.500-  13 2.80  14 2.80  15 2.80  16 2.80  19 2.80  20 2.80  23 2.80  24 2.80
                            26 2.80  28 2.80  30 2.80  32 2.80
   9  0.250  0.250  0.000-   1 2.80   2 2.80   3 2.80   4 2.80  17 2.80  19 2.80  21 2.80  23 2.80
                            25 2.80  26 2.80  29 2.80  30 2.80
  10  0.750  0.250  0.000-   2 2.80   3 2.80   4 2.80  18 2.80  20 2.80  22 2.80  24 2.80  25 2.80
                            26 2.80  29 2.80  30 2.80   1 2.81
  11  0.250  0.750  0.000-   1 2.80   2 2.80   3 2.80   4 2.80  17 2.80  19 2.80  21 2.80  23 2.80
                            27 2.80  28 2.80  31 2.80  32 2.80
  12  0.750  0.750  0.000-   2 2.80   3 2.80   4 2.80  18 2.80  20 2.80  22 2.80  24 2.80  27 2.80
                            28 2.80  31 2.80  32 2.80   1 2.81
  13  0.250  0.250  0.500-   5 2.80   6 2.80   7 2.80   8 2.80  17 2.80  19 2.80  21 2.80  23 2.80
                            25 2.80  26 2.80  29 2.80  30 2.80
  14  0.750  0.250  0.500-   5 2.80   6 2.80   7 2.80   8 2.80  18 2.80  20 2.80  22 2.80  24 2.80
                            25 2.80  26 2.80  29 2.80  30 2.80
  15  0.250  0.750  0.500-   5 2.80   6 2.80   7 2.80   8 2.80  17 2.80  19 2.80  21 2.80  23 2.80
                            27 2.80  28 2.80  31 2.80  32 2.80
  16  0.750  0.750  0.500-   5 2.80   6 2.80   7 2.80   8 2.80  18 2.80  20 2.80  22 2.80  24 2.80
                            27 2.80  28 2.80  31 2.80  32 2.80
  17  0.250  0.000  0.250-   1 2.80   2 2.80   5 2.80   6 2.80   9 2.80  11 2.80  13 2.80  15 2.80
                            25 2.80  26 2.80  27 2.80  28 2.80
  18  0.750  0.000  0.250-   2 2.80   5 2.80   6 2.80  10 2.80  12 2.80  14 2.80  16 2.80  25 2.80
                            26 2.80  27 2.80  28 2.80   1 2.81
  19  0.250  0.500  0.250-   3 2.80   4 2.80   7 2.80   8 2.80   9 2.80  11 2.80  13 2.80  15 2.80
                            25 2.80  26 2.80  27 2.80  28 2.80
  20  0.750  0.500  0.250-   3 2.80   4 2.80   7 2.80   8 2.80  10 2.80  12 2.80  14 2.80  16 2.80
                            25 2.80  26 2.80  27 2.80  28 2.80
  21  0.250  0.000  0.750-   1 2.80   2 2.80   5 2.80   6 2.80   9 2.80  11 2.80  13 2.80  15 2.80
                            29 2.80  30 2.80  31 2.80  32 2.80
  22  0.750  0.000  0.750-   2 2.80   5 2.80   6 2.80  10 2.80  12 2.80  14 2.80  16 2.80  29 2.80
                            30 2.80  31 2.80  32 2.80   1 2.81
  23  0.250  0.500  0.750-   3 2.80   4 2.80   7 2.80   8 2.80   9 2.80  11 2.80  13 2.80  15 2.80
                            29 2.80  30 2.80  31 2.80  32 2.80
  24  0.750  0.500  0.750-   3 2.80   4 2.80   7 2.80   8 2.80  10 2.80  12 2.80  14 2.80  16 2.80
                            29 2.80  30 2.80  31 2.80  32 2.80
  25  0.000  0.250  0.250-   3 2.80   5 2.80   7 2.80   9 2.80  10 2.80  13 2.80  14 2.80  17 2.80
                            18 2.80  19 2.80  20 2.80   1 2.80
  26  0.500  0.250  0.250-   2 2.80   4 2.80   6 2.80   8 2.80   9 2.80  10 2.80  13 2.80  14 2.80
                            17 2.80  18 2.80  19 2.80  20 2.80
  27  0.000  0.750  0.250-   3 2.80   5 2.80   7 2.80  11 2.80  12 2.80  15 2.80  16 2.80  17 2.80
                            18 2.80  19 2.80  20 2.80   1 2.80
  28  0.500  0.750  0.250-   2 2.80   4 2.80   6 2.80   8 2.80  11 2.80  12 2.80  15 2.80  16 2.80
                            17 2.80  18 2.80  19 2.80  20 2.80
  29  0.000  0.250  0.750-   3 2.80   5 2.80   7 2.80   9 2.80  10 2.80  13 2.80  14 2.80  21 2.80
                            22 2.80  23 2.80  24 2.80   1 2.80
  30  0.500  0.250  0.750-   2 2.80   4 2.80   6 2.80   8 2.80   9 2.80  10 2.80  13 2.80  14 2.80
                            21 2.80  22 2.80  23 2.80  24 2.80
  31  0.000  0.750  0.750-   3 2.80   5 2.80   7 2.80  11 2.80  12 2.80  15 2.80  16 2.80  21 2.80
                            22 2.80  23 2.80  24 2.80   1 2.80
  32  0.500  0.750  0.750-   2 2.80   4 2.80   6 2.80   8 2.80  11 2.80  12 2.80  15 2.80  16 2.80
                            21 2.80  22 2.80  23 2.80  24 2.80

  LATTYP: Found a simple cubic cell.
 ALAT       =     7.9284186144

  Lattice vectors:

 A1 = (   7.9284186144,   0.0000000000,   0.0000000000)
 A2 = (   0.0000000000,   7.9284186144,   0.0000000000)
 A3 = (   0.0000000000,   0.0000000000,   7.9284186144)
 Subroutine PRICEL returns:
 Original cell was already a primitive cell.

Analysis of symmetry for initial positions (statically):

 Routine SETGRP: Setting up the symmetry group for a
 simple cubic supercell.

 Subroutine GETGRP returns: Found  8 space group operations
 (whereof  8 operations were pure point group operations)
 out of a pool of 48 trial point group operations.

The static configuration has the point symmetry C_4v.

Analysis of symmetry for dynamics (positions and initial velocities):

 Subroutine DYNSYM returns: Found  8 space group operations
 (whereof  8 operations were pure point group operations)
 out of a pool of  8 trial space group operations
 (whereof  8 operations were pure point group operations)
 and found also     1 'primitive' translations

The dynamic configuration has the point symmetry C_4v.

 KPOINTS: Automatic mesh

Automatic generation of k-mesh.

 Subroutine IBZKPT returns following result:

 Found    196 irreducible k-points:

 Following reciprocal coordinates:
            Coordinates               Weight
  0.000000  0.000000  0.000000      1.000000
  0.083333  0.000000  0.000000      2.000000
  0.166667  0.000000  0.000000      2.000000
  0.250000  0.000000  0.000000      2.000000
  0.333333  0.000000  0.000000      2.000000
  0.416667  0.000000  0.000000      2.000000
  0.500000  0.000000  0.000000      1.000000
  0.000000  0.083333  0.000000      4.000000
  0.083333  0.083333  0.000000      8.000000
  0.166667  0.083333  0.000000      8.000000
  0.250000  0.083333  0.000000      8.000000
  0.333333  0.083333  0.000000      8.000000
  0.416667  0.083333  0.000000      8.000000
  0.500000  0.083333  0.000000      4.000000
  0.000000  0.166667  0.000000      4.000000
  0.083333  0.166667  0.000000      8.000000
  0.166667  0.166667  0.000000      8.000000
  0.250000  0.166667  0.000000      8.000000
  0.333333  0.166667  0.000000      8.000000
  0.416667  0.166667  0.000000      8.000000
  0.500000  0.166667  0.000000      4.000000
  0.000000  0.250000  0.000000      4.000000
  0.083333  0.250000  0.000000      8.000000
  0.166667  0.250000  0.000000      8.000000
  0.250000  0.250000  0.000000      8.000000
  0.333333  0.250000  0.000000      8.000000
  0.416667  0.250000  0.000000      8.000000
  0.500000  0.250000  0.000000      4.000000
  0.000000  0.333333  0.000000      4.000000
  0.083333  0.333333  0.000000      8.000000
  0.166667  0.333333  0.000000      8.000000
  0.250000  0.333333  0.000000      8.000000
  0.333333  0.333333  0.000000      8.000000
  0.416667  0.333333  0.000000      8.000000
  0.500000  0.333333  0.000000      4.000000
  0.000000  0.416667  0.000000      4.000000
  0.083333  0.416667  0.000000      8.000000
  0.166667  0.416667  0.000000      8.000000
  0.250000  0.416667  0.000000      8.000000
  0.333333  0.416667  0.000000      8.000000
  0.416667  0.416667  0.000000      8.000000
  0.500000  0.416667  0.000000      4.000000
  0.000000  0.500000  0.000000      2.000000
  0.083333  0.500000  0.000000      4.000000
  0.166667  0.500000  0.000000      4.000000
  0.250000  0.500000  0.000000      4.000000
  0.333333  0.500000  0.000000      4.000000
  0.416667  0.500000  0.000000      4.000000
  0.500000  0.500000  0.000000      2.000000
  0.000000  0.083333  0.083333      4.000000
  0.083333  0.083333  0.083333      8.000000
  0.166667  0.083333  0.083333      8.000000
  0.250000  0.083333  0.083333      8.000000
  0.333333  0.083333  0.083333      8.000000
  0.416667  0.083333  0.083333      8.000000
  0.500000  0.083333  0.083333      4.000000
  0.000000  0.166667  0.083333      8.000000
  0.083333  0.166667  0.083333     16.000000
  0.166667  0.166667  0.083333     16.000000
  0.250000  0.166667  0.083333     16.000000
[...]
  0.500000  0.416667  0.416667      4.000000
  0.000000  0.500000  0.416667      4.000000
  0.083333  0.500000  0.416667      8.000000
  0.166667  0.500000  0.416667      8.000000
  0.250000  0.500000  0.416667      8.000000
  0.333333  0.500000  0.416667      8.000000
  0.416667  0.500000  0.416667      8.000000
  0.500000  0.500000  0.416667      4.000000
  0.000000  0.500000  0.500000      1.000000
  0.083333  0.500000  0.500000      2.000000
  0.166667  0.500000  0.500000      2.000000
  0.250000  0.500000  0.500000      2.000000
  0.333333  0.500000  0.500000      2.000000
  0.416667  0.500000  0.500000      2.000000
  0.500000  0.500000  0.500000      1.000000

 Following cartesian coordinates:
            Coordinates               Weight
  0.000000  0.000000  0.000000      1.000000
  0.010511  0.000000  0.000000      2.000000
  0.021021  0.000000  0.000000      2.000000
  0.031532  0.000000  0.000000      2.000000
  0.042043  0.000000  0.000000      2.000000
  0.052554  0.000000  0.000000      2.000000
  0.063064  0.000000  0.000000      1.000000
  0.000000  0.010511  0.000000      4.000000
  0.010511  0.010511  0.000000      8.000000
  0.021021  0.010511  0.000000      8.000000
[...]
  average eigenvalue GAMMA=   1.3577
  1.3577

[...]

 eigenvalue-minimisations  : 53568
 total energy-change (2. order) : 0.1128956E-05  (-0.1443923E-08)
 number of electron  352.0000007 magnetization
 augmentation part   128.4681337 magnetization

[...]

 Broyden mixing:
  rms(total) = 0.39868E-05    rms(broyden)= 0.39847E-05
  rms(prec ) = 0.46606E-05
  weight for this iteration     100.00

 eigenvalues of (default mixing * dielectric matrix)
  average eigenvalue GAMMA=   1.5404
  2.7950  2.6368  2.5364  1.9887  1.2328  1.0156  0.9972  0.7926  0.7926  0.6167

[...]

----------------------------------------- Iteration    1(  16)  ---------------------------------------

 eigenvalue-minimisations  : 45996
 total energy-change (2. order) :-0.7443305E-08  (-0.2174354E-10)
 number of electron  352.0000007 magnetization
 augmentation part   128.4681145 magnetization

 Free energy of the ion-electron system (eV)
  alpha Z        PSCENC =      3848.01158156
  Ewald energy   TEWEN  =    -32242.66048481
  -1/2 Hartree   DENC   =     -3257.51999853
  -V(xc)+E(xc)   XCENC  =       487.76599404
  PAW double counting   =     24725.49099251   -24082.79392790
  entropy T*S    EENTRO =        -0.00068191
  eigenvalues    EBANDS =       790.46417124
  atomic energy  EATOM  =     29633.78979189
  free energy    TOTEN  =       -97.45256189 eV

  energy without entropy =      -97.45187998  energy(sigma->0) =      -97.45222094

 average (electrostatic) potential at core
  the test charge radii are     1.2098
  (the norm of the test charge is              1.0000)
       1 -44.6686       2 -44.6686       3 -44.6686       4 -44.6686       5 -44.6686
       6 -44.6686       7 -44.6686       8 -44.6686       9 -44.6704      10 -44.6667
      11 -44.6704      12 -44.6667      13 -44.6687      14 -44.6684      15 -44.6687
      16 -44.6684      17 -44.6704      18 -44.6667      19 -44.6687      20 -44.6684
      21 -44.6704      22 -44.6667      23 -44.6687      24 -44.6684      25 -44.6686
      26 -44.6686      27 -44.6686      28 -44.6686      29 -44.6686      30 -44.6686
      31 -44.6686      32 -44.6686

 E-fermi :   7.0568     XC(G=0): -13.2654     alpha+bet :-11.1428
   add alpha+bet to get absolut eigen values

 k-point   1 :       0.0000    0.0000    0.0000
  band No.  band energies     occupation
      1      -3.8659      2.00000
      2      -1.2801      2.00000
      3      -1.2762      2.00000
      4      -1.2762      2.00000
      5      -1.2762      2.00000
      6      -1.2762      2.00000
      7      -1.2724      2.00000
      8      -1.2451      2.00000
      9      -1.2451      2.00000
     10      -1.2451      2.00000
     11      -1.2450      2.00000
     12      -1.0324      2.00000
     13      -1.0324      2.00000
     14      -1.0324      2.00000
     15      -0.6747      2.00000
     16      -0.6747      2.00000
     17      -0.6747      2.00000
     18       0.1535      2.00000
     19       0.1550      2.00000
     20       0.1550      2.00000
     21       0.1572      2.00000
     22       0.1575      2.00000
     23       0.1575      2.00000
     24       0.1575      2.00000
     25       0.1575      2.00000
     26       0.1578      2.00000
     27       0.1600      2.00000
     28       0.1600      2.00000
     29       0.1615      2.00000
     30       0.2071      2.00000
     31       0.2100      2.00000
     32       0.2100      2.00000
     33       0.2100      2.00000
     34       0.2101      2.00000
     35       0.2129      2.00000
     36       0.4024      2.00000
     37       0.4054      2.00000
     38       0.4054      2.00000
     39       0.4054      2.00000
     40       0.4054      2.00000
     41       0.4084      2.00000
     42       1.0775      2.00000
     43       1.0814      2.00000
     44       1.0814      2.00000
     45       1.0830      2.00000
     46       1.0830      2.00000
     47       1.0830      2.00000
     48       1.0830      2.00000
     49       1.0830      2.00000
     50       1.0831      2.00000
     51       1.0845      2.00000
     52       1.0845      2.00000
     53       1.0881      2.00000
     54       1.1579      2.00000
     55       1.1579      2.00000
     56       1.1609      2.00000
     57       1.1609      2.00000
     58       1.1609      2.00000
     59       1.1610      2.00000
     60       1.1610      2.00000
[...]
    198      13.5869      0.00000
    199      13.5869      0.00000
    200      13.6455      0.00000
    201      13.6455      0.00000
    202      13.6492      0.00000
    203      13.6492      0.00000
    204      13.6499      0.00000
    205      13.6499      0.00000
    206      13.6499      0.00000
    207      13.6503      0.00000
    208      13.6506      0.00000
    209      13.6506      0.00000
    210      13.6542      0.00000
    211      13.6542      0.00000
    212      16.1799      0.00000

[...]

 k-point 196 :       0.5000    0.5000    0.5000
  band No.  band energies     occupation
      1      -1.9473      2.00000
      2      -1.9434      2.00000
      3      -1.9434      2.00000
      4      -1.9428      2.00000
      5      -1.9423      2.00000
      6      -1.9416      2.00000
      7      -1.9416      2.00000
      8      -1.9378      2.00000
      9      -0.3127      2.00000
     10      -0.3126      2.00000
     11      -0.3125      2.00000
     12      -0.3125      2.00000
     13      -0.3113      2.00000
     14      -0.3104      2.00000
     15      -0.3094      2.00000
     16      -0.3094      2.00000
     17      -0.3094      2.00000
     18      -0.3093      2.00000
     19      -0.3093      2.00000
     20      -0.3091      2.00000
     21      -0.3090      2.00000
     22      -0.3088      2.00000
     23      -0.3088      2.00000
     24      -0.3088      2.00000
     25      -0.3088      2.00000
     26      -0.3087      2.00000
     27      -0.3077      2.00000
     28      -0.3068      2.00000
     29      -0.3057      2.00000
     30      -0.3057      2.00000
     31      -0.3056      2.00000
     32      -0.3055      2.00000
     33       0.6929      2.00000
     34       0.6976      2.00000
     35       0.6985      2.00000
     36       0.6986      2.00000
     37       0.6986      2.00000
     38       0.6995      2.00000
     39       0.7000      2.00000
     40       0.7000      2.00000
     41       0.7003      2.00000
     42       0.7004      2.00000
     43       0.7004      2.00000
     44       0.7004      2.00000
     45       0.7005      2.00000
     46       0.7006      2.00000
     47       0.7006      2.00000
     48       0.7006      2.00000
     49       0.7009      2.00000
     50       0.7009      2.00000
     51       0.7014      2.00000
     52       0.7023      2.00000
     53       0.7023      2.00000
     54       0.7024      2.00000
     55       0.7032      2.00000
     56       0.7079      2.00000
     57       1.5480      2.00000
     58       1.5506      2.00000
     59       1.5513      2.00000
     60       1.5513      2.00000
[...]
    198      12.8240      0.00000
    199      12.8244      0.00000
    200      12.8246      0.00000
    201      12.8247      0.00000
    202      12.8248      0.00000
    203      12.8248      0.00000
    204      12.8249      0.00000
    205      12.8249      0.00000
    206      12.8250      0.00000
    207      12.8253      0.00000
    208      12.8254      0.00000
    209      12.8259      0.00000
    210      12.8261      0.00000
    211      12.8264      0.00000
    212      12.8272      0.00000

 soft charge-density along one line, spin component           1
         0         1         2         3         4         5         6         7         8         9
 total charge-density along one line

------------------------ aborting loop because EDIFF is reached ----------------------------------------

  FREE ENERGIE OF THE ION-ELECTRON SYSTEM (eV)
  free  energy   TOTEN  =       -97.452562 eV

  energy  without entropy=      -97.451880  energy(sigma->0) =      -97.452221

  FORCE on cell =-STRESS in cart. coord.  units (eV/reduce length):
  Direction    X        Y        Z        XY       YZ       ZX
  Alpha Z   3848.01   3848.01   3848.01
  Ewald   -10747.63 -10747.58 -10747.58     -0.00      0.00      0.00
  Hartree   1085.82   1085.85   1085.85     -0.00     -0.00     -0.00
  E(xc)    -1604.37  -1604.37  -1604.37      0.00     -0.00      0.00
  Local     2718.63   2718.56   2718.56      0.00     -0.00      0.00
  n-local  -1496.23  -1502.29  -1490.17      4.70      3.93      3.18
  augment   1368.48   1368.48   1368.48     -0.00     -0.00     -0.00
  Kinetic   4930.58   4924.92   4936.23      0.78     -0.78     -2.34
  Total      103.30    103.30    103.30     -0.00     -0.00      0.00
  in kB      332.07    332.07    332.07     -0.00     -0.00      0.00

 VOLUME and BASIS-vectors are now :
  energy-cutoff  :      750.00
  volume of cell :      498.38
      direct lattice vectors                 reciprocal lattice vectors
     7.928418614  0.000000000  0.000000000     0.126128557  0.000000000  0.000000000
     0.000000000  7.928418614  0.000000000     0.000000000  0.126128557  0.000000000
     0.000000000  0.000000000  7.928418614     0.000000000  0.000000000  0.126128557

  length of vectors
     7.928418614  7.928418614  7.928418614     0.126128557  0.126128557  0.126128557

 FORCES acting on ions
    electron-ion (+dipol)            ewald-force                    non-local-force                 convergence-correction
   0.445E+01 -.823E-13 0.208E-07   -.454E+01 -.355E-13 -.568E-13   -.369E-01 -.341E-19 -.280E-19   -.131E-04 0.836E-13 -.985E-13
   -.118E+01 -.435E-13 -.211E-07   0.120E+01 -.284E-13 0.568E-13   -.925E-02 0.180E-19 0.602E-20   0.805E-05 0.726E-13 -.185E-12
   0.376E+00 0.339E-12 0.101E-10   -.379E+00 0.000E+00 0.746E-13   0.249E-02 0.121E-20 -.271E-20   -.109E-04 -.102E-12 -.711E-13
   -.304E+00 0.313E-11 0.963E-11   0.298E+00 -.284E-13 0.568E-13   0.404E-02 -.556E-20 -.144E-20   0.795E-05 -.887E-13 -.124E-12
   0.376E+00 -.814E-13 -.317E-11   -.379E+00 -.142E-13 -.249E-13   0.249E-02 0.116E-20 0.959E-21   -.105E-04 0.718E-13 0.419E-13
   -.304E+00 -.851E-13 -.212E-11   0.298E+00 0.000E+00 0.568E-13   0.404E-02 -.110E-19 0.129E-19   0.785E-05 0.524E-13 0.960E-13
   0.157E+00 0.339E-12 -.177E-11   -.157E+00 -.249E-13 0.888E-13   -.491E-03 0.260E-20 -.318E-21   -.115E-04 -.897E-13 -.514E-14
   -.147E+00 -.247E-11 -.614E-12   0.146E+00 -.284E-13 0.171E-12   0.123E-03 0.340E-20 -.170E-20   0.123E-04 -.660E-13 0.182E-13
   -.562E+00 -.108E+01 0.917E-11   0.576E+00 0.111E+01 0.131E-12   0.475E-02 0.851E-03 -.145E-19   0.330E-05 0.154E-05 -.128E-12
   -.566E+00 0.108E+01 0.105E-10   0.579E+00 -.110E+01 0.131E-12   0.460E-02 -.727E-03 0.406E-20   0.275E-05 -.180E-05 -.983E-13
   -.562E+00 0.108E+01 0.923E-11   0.576E+00 -.111E+01 0.142E-12   0.475E-02 -.851E-03 0.761E-20   0.330E-05 -.154E-05 -.147E-12
   -.566E+00 -.108E+01 0.105E-10   0.579E+00 0.110E+01 0.284E-13   0.460E-02 0.727E-03 0.139E-19   0.275E-05 0.180E-05 -.105E-12
   -.166E-01 -.904E-01 0.636E-11   0.175E-01 0.909E-01 0.924E-13   -.912E-03 -.321E-03 -.625E-20   0.188E-07 -.128E-05 0.433E-13
   -.184E-01 0.902E-01 0.344E-11   0.193E-01 -.908E-01 0.924E-13   -.926E-03 0.324E-03 0.129E-19   0.131E-06 0.140E-05 0.122E-13
   -.166E-01 0.904E-01 0.635E-11   0.175E-01 -.909E-01 0.853E-13   -.912E-03 0.321E-03 -.135E-19   0.188E-07 0.128E-05 0.622E-13
   -.184E-01 -.902E-01 0.325E-11   0.193E-01 0.908E-01 0.142E-12   -.926E-03 -.324E-03 -.466E-20   0.131E-06 -.140E-05 0.296E-13
   -.562E+00 -.759E-13 -.108E+01   0.576E+00 -.391E-13 0.111E+01   0.475E-02 -.126E-19 0.851E-03   0.322E-05 0.745E-13 0.161E-05
   -.566E+00 -.114E-12 0.108E+01   0.579E+00 -.959E-13 -.110E+01   0.460E-02 0.182E-19 -.727E-03   0.268E-05 0.855E-13 -.187E-05
   -.166E-01 0.332E-12 -.904E-01   0.175E-01 -.391E-13 0.909E-01   -.912E-03 0.781E-20 -.321E-03   0.412E-07 -.892E-13 -.120E-05
   -.184E-01 -.368E-11 0.902E-01   0.193E-01 -.959E-13 -.908E-01   -.926E-03 -.371E-21 0.324E-03   0.154E-06 -.100E-12 0.132E-05
   -.562E+00 -.769E-13 0.108E+01   0.576E+00 -.853E-13 -.111E+01   0.475E-02 -.124E-19 -.851E-03   0.322E-05 0.569E-13 -.161E-05
   -.566E+00 -.824E-13 -.108E+01   0.579E+00 -.853E-13 0.110E+01   0.460E-02 -.168E-19 0.727E-03   0.268E-05 0.752E-13 0.187E-05
   -.166E-01 0.333E-12 0.904E-01   0.175E-01 -.284E-13 -.909E-01   -.912E-03 -.564E-20 0.321E-03   0.412E-07 -.714E-13 0.120E-05
   -.184E-01 -.387E-11 -.902E-01   0.193E-01 -.284E-13 0.908E-01   -.926E-03 -.115E-19 -.324E-03   0.154E-06 -.861E-13 -.132E-05
   0.706E+00 0.279E-02 0.279E-02   -.716E+00 -.284E-02 -.284E-02   0.416E-02 0.147E-04 0.147E-04   -.124E-04 0.150E-06 0.149E-06
   -.399E+00 -.832E-03 -.832E-03   0.402E+00 0.850E-03 0.850E-03   -.332E-02 -.170E-04 -.170E-04   0.868E-05 -.199E-06 -.199E-06
   0.706E+00 -.279E-02 0.279E-02   -.716E+00 0.284E-02 -.284E-02   0.416E-02 -.147E-04 0.147E-04   -.124E-04 -.150E-06 0.149E-06
   -.399E+00 0.832E-03 -.832E-03   0.402E+00 -.850E-03 0.850E-03   -.332E-02 0.170E-04 -.170E-04   0.868E-05 0.199E-06 -.199E-06
   0.706E+00 0.279E-02 -.279E-02   -.716E+00 -.284E-02 0.284E-02   0.416E-02 0.147E-04 -.147E-04   -.124E-04 0.150E-06 -.149E-06
   -.399E+00 -.832E-03 0.832E-03   0.402E+00 0.850E-03 -.850E-03   -.332E-02 -.170E-04 0.170E-04   0.868E-05 -.199E-06 0.199E-06
   0.706E+00 -.279E-02 -.279E-02   -.716E+00 0.284E-02 0.284E-02   0.416E-02 -.147E-04 -.147E-04   -.124E-04 -.150E-06 -.149E-06
   -.399E+00 0.832E-03 0.832E-03   0.402E+00 -.850E-03 -.850E-03   -.332E-02 0.170E-04 0.170E-04   0.868E-05 0.199E-06 0.199E-06
   -.125E-05 -.138E-10 0.586E-10   0.437E-13 0.190E-12 0.337E-13   0.306E-05 0.271E-19 -.305E-19   -.296E-06 -.300E-12 -.934E-12

 POSITION                                       TOTAL-FORCE (eV/Angst)
      0.01000      0.00000      0.00000        -0.124499      0.000000      0.000000
      3.96421      0.00000      0.00000         0.006217     -0.000000      0.000000
      0.00000      3.96421      0.00000        -0.001041     -0.000000      0.000000
      3.96421      3.96421      0.00000        -0.001806      0.000000      0.000000
      0.00000      0.00000      3.96421        -0.001041      0.000000      0.000000
      3.96421      0.00000      3.96421        -0.001806      0.000000      0.000000
      0.00000      3.96421      3.96421         0.000134      0.000000      0.000000
      3.96421      3.96421      3.96421         0.000077      0.000000     -0.000000
      1.98210      1.98210      0.00000         0.018367      0.022629      0.000000
      5.94631      1.98210      0.00000         0.017885     -0.021923      0.000000
      1.98210      5.94631      0.00000         0.018367     -0.022629     -0.000000
      5.94631      5.94631      0.00000         0.017885      0.021923     -0.000000
      1.98210      1.98210      3.96421         0.000016      0.000230      0.000000
      5.94631      1.98210      3.96421         0.000015     -0.000229     -0.000000
      1.98210      5.94631      3.96421         0.000016     -0.000230      0.000000
      5.94631      5.94631      3.96421         0.000015      0.000229     -0.000000
      1.98210      0.00000      1.98210         0.018367     -0.000000      0.022629
      5.94631      0.00000      1.98210         0.017885     -0.000000     -0.021923
      1.98210      3.96421      1.98210         0.000016     -0.000000      0.000230
      5.94631      3.96421      1.98210         0.000015      0.000000     -0.000229
      1.98210      0.00000      5.94631         0.018367      0.000000     -0.022629
      5.94631      0.00000      5.94631         0.017885     -0.000000      0.021923
      1.98210      3.96421      5.94631         0.000016      0.000000     -0.000230
      5.94631      3.96421      5.94631         0.000015      0.000000      0.000229
      0.00000      1.98210      1.98210        -0.005962     -0.000037     -0.000037
      3.96421      1.98210      1.98210         0.000620      0.000001      0.000001
      0.00000      5.94631      1.98210        -0.005962      0.000037     -0.000037
      3.96421      5.94631      1.98210         0.000620     -0.000001      0.000001
      0.00000      1.98210      5.94631        -0.005962     -0.000037      0.000037
      3.96421      1.98210      5.94631         0.000620      0.000001     -0.000001
      0.00000      5.94631      5.94631        -0.005962      0.000037      0.000037
      3.96421      5.94631      5.94631         0.000620     -0.000001     -0.000001
    total drift:                                0.000002     -0.000000      0.000000

 mean value of Nose-termostat <S>:     1.000 mean value of <T> :     0.000
 mean temperature <T/S>/<1/S>  :     0.000