 vasp.4.6.28 25Jul05 complex
 executed on             LinuxIFC date 2016.11.11  17:42:47

 INCAR:
 POTCAR:   PAW_PBE Al 04Jan2001
 POTCAR:   PAW_PBE Al 04Jan2001
   VRHFIN =Al: s2p1

   TITEL  = PAW_PBE Al 04Jan2001
   POMASS =   26.982; ZVAL   =    3.000    mass and valenz
   ENMAX  =  240.300; ENMIN  =  180.225 eV
   QCUT   =   -4.203; QGAM   =    8.405    optimization parameters

   Description
     l     E      TYP  RCUT    TYP  RCUT
     0   .000     23  1.900
     0   .000     23  1.900
     1   .000     23  1.900
     1  1.000     23  1.900
     2   .000      7  1.900

 PAW_PBE Al 04Jan2001                   :

 POSCAR: Al
  positions in direct lattice

 ion  position               nearest neighbor table
   1  0.251  0.250  0.000-  18 2.93  22 2.93  26 2.93  28 2.93   9 2.94  11 2.94  13 2.94  15 2.94
                            25 2.95  21 2.95  27 2.95  17 2.95
   2  0.750  0.250  0.000-  10 2.94  12 2.94  14 2.94  16 2.94  17 2.94  18 2.94  21 2.94  22 2.94
                            25 2.94  26 2.94  27 2.94  28 2.94
   3  0.250  0.750  0.000-   9 2.94  11 2.94  13 2.94  15 2.94  19 2.94  20 2.94  23 2.94  24 2.94
                            25 2.94  26 2.94  27 2.94  28 2.94
   4  0.750  0.750  0.000-  10 2.94  12 2.94  14 2.94  16 2.94  19 2.94  20 2.94  23 2.94  24 2.94
                            25 2.94  26 2.94  27 2.94  28 2.94
   5  0.250  0.250  0.500-   9 2.94  11 2.94  13 2.94  15 2.94  17 2.94  18 2.94  21 2.94  22 2.94
                            29 2.94  30 2.94  31 2.94  32 2.94
   6  0.750  0.250  0.500-  10 2.94  12 2.94  14 2.94  16 2.94  17 2.94  18 2.94  21 2.94  22 2.94
                            29 2.94  30 2.94  31 2.94  32 2.94
   7  0.250  0.750  0.500-   9 2.94  11 2.94  13 2.94  15 2.94  19 2.94  20 2.94  23 2.94  24 2.94
                            29 2.94  30 2.94  31 2.94  32 2.94
   8  0.750  0.750  0.500-  10 2.94  12 2.94  14 2.94  16 2.94  19 2.94  20 2.94  23 2.94  24 2.94
                            29 2.94  30 2.94  31 2.94  32 2.94
   9  0.250  0.000  0.250-   3 2.94   5 2.94   7 2.94  17 2.94  18 2.94  19 2.94  20 2.94  25 2.94
                            26 2.94  29 2.94  30 2.94   1 2.94
  10  0.750  0.000  0.250-   2 2.94   4 2.94   6 2.94   8 2.94  17 2.94  18 2.94  19 2.94  20 2.94
                            25 2.94  26 2.94  29 2.94  30 2.94
  11  0.250  0.500  0.250-   3 2.94   5 2.94   7 2.94  17 2.94  18 2.94  19 2.94  20 2.94  27 2.94
                            28 2.94  31 2.94  32 2.94   1 2.94
  12  0.750  0.500  0.250-   2 2.94   4 2.94   6 2.94   8 2.94  17 2.94  18 2.94  19 2.94  20 2.94
                            27 2.94  28 2.94  31 2.94  32 2.94
  13  0.250  0.000  0.750-   3 2.94   5 2.94   7 2.94  21 2.94  22 2.94  23 2.94  24 2.94  25 2.94
                            26 2.94  29 2.94  30 2.94   1 2.94
  14  0.750  0.000  0.750-   2 2.94   4 2.94   6 2.94   8 2.94  21 2.94  22 2.94  23 2.94  24 2.94
                            25 2.94  26 2.94  29 2.94  30 2.94
  15  0.250  0.500  0.750-   3 2.94   5 2.94   7 2.94  21 2.94  22 2.94  23 2.94  24 2.94  27 2.94
                            28 2.94  31 2.94  32 2.94   1 2.94
  16  0.750  0.500  0.750-   2 2.94   4 2.94   6 2.94   8 2.94  21 2.94  22 2.94  23 2.94  24 2.94
                            27 2.94  28 2.94  31 2.94  32 2.94
  17  0.000  0.250  0.250-   2 2.94   5 2.94   6 2.94   9 2.94  10 2.94  11 2.94  12 2.94  25 2.94
                            27 2.94  29 2.94  31 2.94   1 2.95
  18  0.500  0.250  0.250-   1 2.93   2 2.94   5 2.94   6 2.94   9 2.94  10 2.94  11 2.94  12 2.94
                            26 2.94  28 2.94  30 2.94  32 2.94
  19  0.000  0.750  0.250-   3 2.94   4 2.94   7 2.94   8 2.94   9 2.94  10 2.94  11 2.94  12 2.94
                            25 2.94  27 2.94  29 2.94  31 2.94
  20  0.500  0.750  0.250-   3 2.94   4 2.94   7 2.94   8 2.94   9 2.94  10 2.94  11 2.94  12 2.94
                            26 2.94  28 2.94  30 2.94  32 2.94
  21  0.000  0.250  0.750-   2 2.94   5 2.94   6 2.94  13 2.94  14 2.94  15 2.94  16 2.94  25 2.94
                            27 2.94  29 2.94  31 2.94   1 2.95
  22  0.500  0.250  0.750-   1 2.93   2 2.94   5 2.94   6 2.94  13 2.94  14 2.94  15 2.94  16 2.94
                            26 2.94  28 2.94  30 2.94  32 2.94
  23  0.000  0.750  0.750-   3 2.94   4 2.94   7 2.94   8 2.94  13 2.94  14 2.94  15 2.94  16 2.94
                            25 2.94  27 2.94  29 2.94  31 2.94
  24  0.500  0.750  0.750-   3 2.94   4 2.94   7 2.94   8 2.94  13 2.94  14 2.94  15 2.94  16 2.94
                            26 2.94  28 2.94  30 2.94  32 2.94
  25  0.000  0.000  0.000-   2 2.94   3 2.94   4 2.94   9 2.94  10 2.94  13 2.94  14 2.94  17 2.94
                            19 2.94  21 2.94  23 2.94   1 2.95
  26  0.500  0.000  0.000-   1 2.93   2 2.94   3 2.94   4 2.94   9 2.94  10 2.94  13 2.94  14 2.94
                            18 2.94  20 2.94  22 2.94  24 2.94
  27  0.000  0.500  0.000-   2 2.94   3 2.94   4 2.94  11 2.94  12 2.94  15 2.94  16 2.94  17 2.94
                            19 2.94  21 2.94  23 2.94   1 2.95
  28  0.500  0.500  0.000-   1 2.93   2 2.94   3 2.94   4 2.94  11 2.94  12 2.94  15 2.94  16 2.94
                            18 2.94  20 2.94  22 2.94  24 2.94
  29  0.000  0.000  0.500-   5 2.94   6 2.94   7 2.94   8 2.94   9 2.94  10 2.94  13 2.94  14 2.94
                            17 2.94  19 2.94  21 2.94  23 2.94
  30  0.500  0.000  0.500-   5 2.94   6 2.94   7 2.94   8 2.94   9 2.94  10 2.94  13 2.94  14 2.94
                            18 2.94  20 2.94  22 2.94  24 2.94
  31  0.000  0.500  0.500-   5 2.94   6 2.94   7 2.94   8 2.94  11 2.94  12 2.94  15 2.94  16 2.94
                            17 2.94  19 2.94  21 2.94  23 2.94
  32  0.500  0.500  0.500-   5 2.94   6 2.94   7 2.94   8 2.94  11 2.94  12 2.94  15 2.94  16 2.94
                            18 2.94  20 2.94  22 2.94  24 2.94

  LATTYP: Found a simple cubic cell.
 ALAT       =     8.3168511215

  Lattice vectors:

 A1 = (   8.3168511215,   0.0000000000,   0.0000000000)
 A2 = (   0.0000000000,   8.3168511215,   0.0000000000)
 A3 = (   0.0000000000,   0.0000000000,   8.3168511215)
 Subroutine PRICEL returns:
 Original cell was already a primitive cell.

Analysis of symmetry for initial positions (statically):

 Routine SETGRP: Setting up the symmetry group for a
 simple cubic supercell.

 Subroutine GETGRP returns: Found  8 space group operations
 (whereof  2 operations were pure point group operations)
 out of a pool of 48 trial point group operations.

The static configuration has the point symmetry C_1h.
 The point group associated with its full space group is C_4v.

Analysis of symmetry for dynamics (positions and initial velocities):

 Subroutine DYNSYM returns: Found  8 space group operations
 (whereof  2 operations were pure point group operations)
 out of a pool of  8 trial space group operations
 (whereof  2 operations were pure point group operations)
 and found also     1 'primitive' translations

The dynamic configuration has the point symmetry C_1h.
 The point group associated with its full space group is C_4v.

 KPOINTS: Automatic mesh

Automatic generation of k-mesh.

 Subroutine IBZKPT returns following result:

 Found    196 irreducible k-points:

 Following reciprocal coordinates:
            Coordinates               Weight
  0.000000  0.000000  0.000000      1.000000
  0.083333  0.000000  0.000000      2.000000
  0.166667  0.000000  0.000000      2.000000
  0.250000  0.000000  0.000000      2.000000
  0.333333  0.000000  0.000000      2.000000
  0.416667  0.000000  0.000000      2.000000
  0.500000  0.000000  0.000000      1.000000
  0.000000  0.083333  0.000000      4.000000
  0.083333  0.083333  0.000000      8.000000
  0.166667  0.083333  0.000000      8.000000
  0.250000  0.083333  0.000000      8.000000
  0.333333  0.083333  0.000000      8.000000
  0.416667  0.083333  0.000000      8.000000
  0.500000  0.083333  0.000000      4.000000
  0.000000  0.166667  0.000000      4.000000
  0.083333  0.166667  0.000000      8.000000
  0.166667  0.166667  0.000000      8.000000
  0.250000  0.166667  0.000000      8.000000
  0.333333  0.166667  0.000000      8.000000
  0.416667  0.166667  0.000000      8.000000
  0.500000  0.166667  0.000000      4.000000
  0.000000  0.250000  0.000000      4.000000
  0.083333  0.250000  0.000000      8.000000
  0.166667  0.250000  0.000000      8.000000
  0.250000  0.250000  0.000000      8.000000
  0.333333  0.250000  0.000000      8.000000
  0.416667  0.250000  0.000000      8.000000
  0.500000  0.250000  0.000000      4.000000
  0.000000  0.333333  0.000000      4.000000
  0.083333  0.333333  0.000000      8.000000
  0.166667  0.333333  0.000000      8.000000
  0.250000  0.333333  0.000000      8.000000
  0.333333  0.333333  0.000000      8.000000
  0.416667  0.333333  0.000000      8.000000
  0.500000  0.333333  0.000000      4.000000
  0.000000  0.416667  0.000000      4.000000
  0.083333  0.416667  0.000000      8.000000
  0.166667  0.416667  0.000000      8.000000
  0.250000  0.416667  0.000000      8.000000
  0.333333  0.416667  0.000000      8.000000
  0.416667  0.416667  0.000000      8.000000
  0.500000  0.416667  0.000000      4.000000
  0.000000  0.500000  0.000000      2.000000
  0.083333  0.500000  0.000000      4.000000
  0.166667  0.500000  0.000000      4.000000
  0.250000  0.500000  0.000000      4.000000
  0.333333  0.500000  0.000000      4.000000
  0.416667  0.500000  0.000000      4.000000
  0.500000  0.500000  0.000000      2.000000
  0.000000  0.083333  0.083333      4.000000
  0.083333  0.083333  0.083333      8.000000
  0.166667  0.083333  0.083333      8.000000
  0.250000  0.083333  0.083333      8.000000
  0.333333  0.083333  0.083333      8.000000
  0.416667  0.083333  0.083333      8.000000
  0.500000  0.083333  0.083333      4.000000
  0.000000  0.166667  0.083333      8.000000
  0.083333  0.166667  0.083333     16.000000
  0.166667  0.166667  0.083333     16.000000
  0.250000  0.166667  0.083333     16.000000
[...]
  0.500000  0.416667  0.416667      4.000000
  0.000000  0.500000  0.416667      4.000000
  0.083333  0.500000  0.416667      8.000000
  0.166667  0.500000  0.416667      8.000000
  0.250000  0.500000  0.416667      8.000000
  0.333333  0.500000  0.416667      8.000000
  0.416667  0.500000  0.416667      8.000000
  0.500000  0.500000  0.416667      4.000000
  0.000000  0.500000  0.500000      1.000000
  0.083333  0.500000  0.500000      2.000000
  0.166667  0.500000  0.500000      2.000000
  0.250000  0.500000  0.500000      2.000000
  0.333333  0.500000  0.500000      2.000000
  0.416667  0.500000  0.500000      2.000000
  0.500000  0.500000  0.500000      1.000000

 Following cartesian coordinates:
            Coordinates               Weight
  0.000000  0.000000  0.000000      1.000000
  0.010020  0.000000  0.000000      2.000000
  0.020040  0.000000  0.000000      2.000000
  0.030059  0.000000  0.000000      2.000000
  0.040079  0.000000  0.000000      2.000000
  0.050099  0.000000  0.000000      2.000000
  0.060119  0.000000  0.000000      1.000000
  0.000000  0.010020  0.000000      4.000000
[...]
  free energy    TOTEN  =       169.48375534 eV

  energy without entropy =      169.48419546  energy(sigma->0) =      169.48397540

[...]

 eigenvalue-minimisations  : 31064
 total energy-change (2. order) :-0.2713486E+03  (-0.2538234E+03)
 number of electron   96.0000000 magnetization
 augmentation part    96.0000000 magnetization

[...]

 Broyden mixing:
  rms(total) = 0.50858E+00    rms(broyden)= 0.50858E+00
  rms(prec ) = 0.74033E+00
  weight for this iteration     100.00

[...]

 eigenvalues of (default mixing * dielectric matrix)
  average eigenvalue GAMMA=   2.6241
  2.6241

[...]

 eigenvalue-minimisations  : 17736
 total energy-change (2. order) : 0.9240011E-07  (-0.3085228E-09)
 number of electron   96.0000000 magnetization
 augmentation part    -1.3070353 magnetization

 Broyden mixing:
  rms(total) = 0.31568E-05    rms(broyden)= 0.31568E-05
  rms(prec ) = 0.49410E-05
  weight for this iteration     100.00

 eigenvalues of (default mixing * dielectric matrix)
  average eigenvalue GAMMA=   1.7205
  2.7164  2.7164  2.4943  1.6876  1.3676  1.0433  0.9396  0.7989

[...]

----------------------------------------- Iteration    1(  14)  ---------------------------------------

 eigenvalue-minimisations  : 17004
 total energy-change (2. order) :-0.7586095E-08  (-0.4563939E-10)
 number of electron   96.0000000 magnetization
 augmentation part    -1.3070353 magnetization

 Free energy of the ion-electron system (eV)
  alpha Z        PSCENC =        -5.97872903
  Ewald energy   TEWEN  =     -2286.20769594
  -1/2 Hartree   DENC   =        -3.17283876
  -V(xc)+E(xc)   XCENC  =      -841.62030112
  PAW double counting   =      1134.01203057     -111.45964166
  entropy T*S    EENTRO =        -0.00052107
  eigenvalues    EBANDS =       282.22881399
  atomic energy  EATOM  =      1713.23509266
  free energy    TOTEN  =      -118.96379036 eV

  energy without entropy =     -118.96326929  energy(sigma->0) =     -118.96352983

 average (electrostatic) potential at core
  the test charge radii are     1.0406
  (the norm of the test charge is              1.0000)
       1 -73.6117       2 -73.6118       3 -73.6118       4 -73.6118       5 -73.6118
       6 -73.6118       7 -73.6118       8 -73.6118       9 -73.6118      10 -73.6118
      11 -73.6118      12 -73.6118      13 -73.6118      14 -73.6118      15 -73.6118
      16 -73.6118      17 -73.6123      18 -73.6112      19 -73.6118      20 -73.6118
      21 -73.6123      22 -73.6112      23 -73.6118      24 -73.6118      25 -73.6123
      26 -73.6112      27 -73.6123      28 -73.6112      29 -73.6118      30 -73.6118
      31 -73.6118      32 -73.6118

 E-fermi :   7.1434     XC(G=0):  -9.8904     alpha+bet :-13.6538
   add alpha+bet to get absolut eigen values

 k-point   1 :       0.0000    0.0000    0.0000
  band No.  band energies     occupation
      1      -3.4214      2.00000
      2      -1.2993      2.00000
      3      -1.2957      2.00000
      4      -1.2957      2.00000
      5      -1.2957      2.00000
      6      -1.2957      2.00000
      7      -1.2921      2.00000
      8       0.7950      2.00000
      9       0.7994      2.00000
     10       0.7994      2.00000
     11       0.8010      2.00000
     12       0.8011      2.00000
     13       0.8011      2.00000
     14       0.8011      2.00000
     15       0.8011      2.00000
     16       0.8013      2.00000
     17       0.8028      2.00000
     18       0.8028      2.00000
     19       0.8072      2.00000
     20       2.8643      2.00000
     21       2.8646      2.00000
     22       2.8646      2.00000
     23       2.8648      2.00000
     24       2.8780      2.00000
     25       2.8782      2.00000
     26       2.8782      2.00000
     27       2.8785      2.00000
     28       4.4170      2.00000
     29       4.4170      2.00000
     30       4.4171      2.00000
     31       5.5339      2.00000
     32       5.5340      2.00000
     33       5.5340      2.00000
     34       6.3923      2.00000
     35       6.3923      2.00000
     36       6.3964      2.00000
     37       6.3964      2.00000
     38       6.3965      2.00000
     39       6.3965      2.00000
     40       6.3965      2.00000
     41       6.3966      2.00000
     42       6.3966      2.00000
     43       6.3966      2.00000
     44       6.4007      2.00000
     45       6.4007      2.00000
     46       7.4446      0.00000
     47       7.4486      0.00000
     48       7.4486      0.00000
     49       7.4486      0.00000
     50       7.4486      0.00000
     51       7.4525      0.00000
     52       7.7801      0.00000
     53       7.7810      0.00000
     54       7.7810      0.00000
     55       7.7810      0.00000
     56       7.7811      0.00000
     57       7.7819      0.00000
     58       8.3748      0.00000
     59       8.3754      0.00000
     60       8.3771      0.00000
     61       8.3787      0.00000
     62       8.3787      0.00000
     63       8.3787      0.00000
     64       8.3788      0.00000
     65       8.3788      0.00000
     66       8.3809      0.00000
     67       8.3823      0.00000
     68       8.3827      0.00000

[...]

 k-point 196 :       0.5000    0.5000    0.5000
  band No.  band energies     occupation
      1      -1.8290      2.00000
      2      -1.8249      2.00000
      3      -1.8249      2.00000
      4      -1.8245      2.00000
      5      -1.8244      2.00000
      6      -1.8240      2.00000
      7      -1.8240      2.00000
      8      -1.8199      2.00000
      9       2.3401      2.00000
     10       2.3463      2.00000
     11       2.3463      2.00000
     12       2.3494      2.00000
     13       2.3497      2.00000
     14       2.3497      2.00000
     15       2.3501      2.00000
     16       2.3501      2.00000
     17       2.3501      2.00000
     18       2.3501      2.00000
     19       2.3501      2.00000
     20       2.3501      2.00000
     21       2.3502      2.00000
     22       2.3502      2.00000
     23       2.3502      2.00000
     24       2.3502      2.00000
     25       2.3502      2.00000
     26       2.3502      2.00000
     27       2.3506      2.00000
     28       2.3506      2.00000
     29       2.3509      2.00000
     30       2.3540      2.00000
     31       2.3540      2.00000
     32       2.3602      2.00000
     33       6.4128      2.00000
     34       6.4128      2.00000
     35       6.4145      2.00000
     36       6.4166      2.00000
     37       6.4179      2.00000
     38       6.4183      2.00000
     39       6.4183      2.00000
     40       6.4183      2.00000
     41       6.4185      2.00000
     42       6.4185      2.00000
     43       6.4185      2.00000
     44       6.4186      2.00000
     45       6.4186      2.00000
     46       6.4186      2.00000
     47       6.4186      2.00000
     48       6.4186      2.00000
     49       6.4188      2.00000
     50       6.4188      2.00000
     51       6.4189      2.00000
     52       6.4192      2.00000
     53       6.4205      2.00000
     54       6.4226      2.00000
     55       6.4243      2.00000
     56       6.4243      2.00000
     57      10.3987      0.00000
     58      10.3987      0.00000
     59      10.3988      0.00000
     60      10.3993      0.00000
     61      10.4007      0.00000
     62      10.4014      0.00000
     63      10.4014      0.00000
     64      10.4015      0.00000
     65      10.5638      0.00000
     66      10.5648      0.00000
     67      10.5658      0.00000
     68      10.5663      0.00000

 soft charge-density along one line, spin component           1
         0         1         2         3         4         5         6         7         8         9
 total charge-density along one line

------------------------ aborting loop because EDIFF is reached ----------------------------------------

  FREE ENERGIE OF THE ION-ELECTRON SYSTEM (eV)
  free  energy   TOTEN  =      -118.963790 eV

  energy  without entropy=     -118.963269  energy(sigma->0) =     -118.963530

  FORCE on cell =-STRESS in cart. coord.  units (eV/reduce length):
  Direction    X        Y        Z        XY       YZ       ZX
  Alpha Z     -5.98     -5.98     -5.98
  Ewald     -762.07   -762.07   -762.07      0.00     -0.00      0.00
  Hartree      1.06      1.06      1.06      0.00     -0.00     -0.00
  E(xc)     -266.98   -266.98   -266.98     -0.00      0.00      0.00
  Local       -1.27     -1.28     -1.28     -0.00     -0.00      0.00
  n-local    595.29    595.85    594.73     -0.41     -0.08      0.25
  augment    -34.91    -34.91    -34.91      0.00      0.00      0.00
  Kinetic    455.10    447.78    462.42      5.40      0.64     -4.12
  Total      -19.77    -19.77    -19.77     -0.00      0.00      0.00
  in kB      -55.07    -55.07    -55.07     -0.00      0.00      0.00

 VOLUME and BASIS-vectors are now :
  energy-cutoff  :      750.00
  volume of cell :      575.28
      direct lattice vectors                 reciprocal lattice vectors
     8.316851122  0.000000000  0.000000000     0.120237814  0.000000000  0.000000000
     0.000000000  8.316851122  0.000000000     0.000000000  0.120237814  0.000000000
     0.000000000  0.000000000  8.316851122     0.000000000  0.000000000  0.120237814

  length of vectors
     8.316851122  8.316851122  8.316851122     0.120237814  0.120237814  0.120237814

 FORCES acting on ions
    electron-ion (+dipol)            ewald-force                    non-local-force                 convergence-correction
   0.352E+00 -.194E-12 -.201E-08   -.293E+00 -.833E-15 -.233E-14   -.922E-01 0.000E+00 0.136E-19   0.310E-05 0.130E-13 -.384E-14
   -.796E-01 -.433E-12 0.114E-08   0.772E-01 0.488E-14 -.514E-14   0.425E-02 0.000E+00 0.000E+00   0.413E-06 0.145E-13 -.245E-14
   0.248E-01 0.904E-13 0.420E-13   -.244E-01 0.333E-14 -.475E-14   -.688E-03 0.000E+00 0.000E+00   0.163E-05 -.134E-13 -.241E-14
   -.188E-01 0.511E-12 0.287E-12   0.192E-01 0.333E-14 -.475E-14   0.196E-03 0.271E-19 0.000E+00   -.244E-05 -.148E-13 -.157E-14
   0.248E-01 0.682E-14 -.760E-11   -.244E-01 0.777E-14 0.439E-14   -.688E-03 0.271E-19 -.339E-20   0.164E-05 0.143E-13 0.411E-14
   -.188E-01 0.332E-12 -.746E-11   0.192E-01 0.422E-14 0.461E-14   0.196E-03 0.271E-19 -.136E-19   -.244E-05 0.154E-13 0.278E-14
   0.102E-01 0.330E-13 0.892E-12   -.101E-01 0.289E-14 0.400E-14   0.224E-03 -.136E-19 0.000E+00   -.296E-07 -.147E-13 0.273E-14
   -.945E-02 -.207E-12 0.727E-12   0.944E-02 0.289E-14 0.400E-14   -.660E-03 0.000E+00 0.000E+00   -.456E-06 -.156E-13 0.191E-14
   0.443E-01 -.201E-03 0.201E-03   -.461E-01 0.174E-03 -.174E-03   0.443E-03 0.396E-04 -.396E-04   0.497E-06 -.737E-07 0.737E-07
   -.272E-01 0.689E-04 -.689E-04   0.259E-01 -.522E-04 0.522E-04   0.684E-03 -.154E-04 0.154E-04   -.471E-06 -.164E-07 0.164E-07
   0.443E-01 0.201E-03 0.201E-03   -.461E-01 -.174E-03 -.174E-03   0.443E-03 -.396E-04 -.396E-04   0.497E-06 0.737E-07 0.737E-07
   -.272E-01 -.689E-04 -.689E-04   0.259E-01 0.522E-04 0.522E-04   0.684E-03 0.154E-04 0.154E-04   -.471E-06 0.164E-07 0.164E-07
   0.443E-01 -.201E-03 -.201E-03   -.461E-01 0.174E-03 0.174E-03   0.443E-03 0.396E-04 0.396E-04   0.497E-06 -.737E-07 -.737E-07
   -.272E-01 0.689E-04 0.689E-04   0.259E-01 -.522E-04 -.522E-04   0.684E-03 -.154E-04 -.154E-04   -.471E-06 -.164E-07 -.164E-07
   0.443E-01 0.201E-03 -.201E-03   -.461E-01 -.174E-03 0.174E-03   0.443E-03 -.396E-04 0.396E-04   0.497E-06 0.737E-07 -.737E-07
   -.272E-01 -.689E-04 0.689E-04   0.259E-01 0.522E-04 -.522E-04   0.684E-03 0.154E-04 -.154E-04   -.471E-06 0.164E-07 -.164E-07
   -.437E-01 0.376E-15 0.771E-01   0.373E-01 0.794E-14 -.707E-01   0.110E-01 0.000E+00 -.110E-01   -.621E-06 0.150E-13 -.318E-06
   -.435E-01 -.334E-13 -.778E-01   0.371E-01 0.600E-14 0.713E-01   0.113E-01 0.466E-20 0.113E-01   -.566E-06 0.180E-13 0.338E-06
   -.706E-03 -.554E-14 0.582E-02   0.124E-02 0.139E-14 -.585E-02   -.547E-03 0.000E+00 0.126E-03   0.434E-06 -.155E-13 0.924E-06
   -.601E-03 0.359E-13 -.583E-02   0.113E-02 0.466E-14 0.586E-02   -.537E-03 0.102E-19 -.130E-03   0.370E-06 -.182E-13 -.886E-06
   -.437E-01 0.462E-15 -.771E-01   0.373E-01 0.794E-14 0.707E-01   0.110E-01 0.180E-20 0.110E-01   -.621E-06 0.117E-13 0.318E-06
   -.435E-01 -.459E-13 0.778E-01   0.371E-01 0.600E-14 -.713E-01   0.113E-01 0.000E+00 -.113E-01   -.566E-06 0.126E-13 -.338E-06
   -.706E-03 -.836E-14 -.582E-02   0.124E-02 0.316E-14 0.585E-02   -.547E-03 0.000E+00 -.126E-03   0.434E-06 -.122E-13 -.924E-06
   -.601E-03 -.187E-12 0.583E-02   0.113E-02 0.466E-14 -.586E-02   -.537E-03 0.000E+00 0.130E-03   0.370E-06 -.128E-13 0.886E-06
   -.437E-01 -.771E-01 0.185E-11   0.373E-01 0.707E-01 -.256E-14   0.110E-01 0.110E-01 0.000E+00   -.620E-06 0.315E-06 -.289E-14
   -.435E-01 0.778E-01 0.111E-11   0.371E-01 -.713E-01 -.283E-14   0.113E-01 -.113E-01 0.000E+00   -.565E-06 -.334E-06 -.670E-14
   -.437E-01 0.771E-01 0.184E-11   0.373E-01 -.707E-01 -.499E-14   0.110E-01 -.110E-01 0.000E+00   -.620E-06 -.315E-06 0.468E-15
   -.435E-01 -.778E-01 0.196E-11   0.371E-01 0.713E-01 -.282E-14   0.113E-01 0.113E-01 0.678E-20   -.565E-06 0.334E-06 -.127E-14
   -.706E-03 -.582E-02 -.483E-12   0.124E-02 0.585E-02 -.101E-14   -.547E-03 -.126E-03 0.424E-21   0.433E-06 -.928E-06 0.324E-14
   -.601E-03 0.583E-02 -.283E-12   0.113E-02 -.586E-02 -.428E-14   -.537E-03 0.130E-03 0.339E-20   0.369E-06 0.889E-06 0.696E-14
   -.706E-03 0.582E-02 -.480E-12   0.124E-02 -.585E-02 0.144E-14   -.547E-03 0.126E-03 0.339E-20   0.433E-06 0.928E-06 -.110E-15
   -.601E-03 -.583E-02 -.541E-12   0.113E-02 0.586E-02 0.283E-14   -.537E-03 -.130E-03 0.508E-20   0.369E-06 -.889E-06 0.156E-14
   0.190E-05 0.590E-12 -.893E-09   -.978E-14 -.656E-14 -.211E-13   -.182E-05 -.173E-17 -.329E-17   0.271E-08 -.105E-15 -.954E-17

 POSITION                                       TOTAL-FORCE (eV/Angst)
      2.08921      2.07921      0.00000        -0.032247     -0.000000      0.000000
      6.23764      2.07921      0.00000         0.001825      0.000000     -0.000000
      2.07921      6.23764      0.00000        -0.000294      0.000000     -0.000000
      6.23764      6.23764      0.00000         0.000571     -0.000000      0.000000
      2.07921      2.07921      4.15843        -0.000294      0.000000     -0.000000
      6.23764      2.07921      4.15843         0.000571     -0.000000      0.000000
      2.07921      6.23764      4.15843         0.000296     -0.000000      0.000000
      6.23764      6.23764      4.15843        -0.000672     -0.000000     -0.000000
      2.07921      0.00000      2.07921        -0.001369      0.000013     -0.000013
      6.23764      0.00000      2.07921        -0.000579      0.000001     -0.000001
      2.07921      4.15843      2.07921        -0.001369     -0.000013     -0.000013
      6.23764      4.15843      2.07921        -0.000579     -0.000001     -0.000001
      2.07921      0.00000      6.23764        -0.001369      0.000013      0.000013
      6.23764      0.00000      6.23764        -0.000579      0.000001      0.000001
      2.07921      4.15843      6.23764        -0.001369     -0.000013      0.000013
      6.23764      4.15843      6.23764        -0.000579     -0.000001      0.000001
      0.00000      2.07921      2.07921         0.004705      0.000000     -0.004658
      4.15843      2.07921      2.07921         0.004821     -0.000000      0.004816
      0.00000      6.23764      2.07921        -0.000009     -0.000000      0.000099
      4.15843      6.23764      2.07921        -0.000007      0.000000     -0.000098
      0.00000      2.07921      6.23764         0.004705      0.000000      0.004658
      4.15843      2.07921      6.23764         0.004821      0.000000     -0.004816
      0.00000      6.23764      6.23764        -0.000009     -0.000000     -0.000099
      4.15843      6.23764      6.23764        -0.000007      0.000000      0.000098
      0.00000      0.00000      0.00000         0.004705      0.004658     -0.000000
      4.15843      0.00000      0.00000         0.004821     -0.004816     -0.000000
      0.00000      4.15843      0.00000         0.004705     -0.004658      0.000000
      4.15843      4.15843      0.00000         0.004821      0.004816      0.000000
      0.00000      0.00000      4.15843        -0.000009     -0.000099      0.000000
      4.15843      0.00000      4.15843        -0.000007      0.000098     -0.000000
      0.00000      4.15843      4.15843        -0.000009      0.000099      0.000000
      4.15843      4.15843      4.15843        -0.000007     -0.000098      0.000000
    total drift:                                0.000000      0.000000     -0.000000

 mean value of Nose-termostat <S>:     1.000 mean value of <T> :     0.000
 mean temperature <T/S>/<1/S>  :     0.000