 vasp.4.6.28 25Jul05 complex
 executed on             LinuxIFC date 2017.01.14  12:19:28

 INCAR:
 POTCAR:   PAW_PBE Au 06Sep2000
 POTCAR:   PAW_PBE Au 06Sep2000
   VRHFIN =Au: s1d10

   TITEL  = PAW_PBE Au 06Sep2000
   POMASS =  196.966; ZVAL   =   11.000    mass and valenz
   ENMAX  =  229.948; ENMIN  =  172.461 eV
   QCUT   =   -4.111; QGAM   =    8.222    optimization parameters

   Description
     l     E      TYP  RCUT    TYP  RCUT
     2   .000     23  2.500
     2   .000     23  2.500
     0   .000     23  2.500
     0   .000     23  2.500
     1  -.200     23  2.500
     1   .000     23  2.500
     3   .000      7   .000

 PAW_PBE Au 06Sep2000                   :

 POSCAR: Au
  positions in direct lattice

 ion  position               nearest neighbor table
   1  0.001  0.000  0.000-   9 3.12  11 3.12  17 3.12  21 3.12  25 3.13  27 3.13  29 3.13  31 3.13
                            10 3.13  18 3.13  12 3.13  22 3.13
   2  0.500  0.000  0.000-   9 3.13  10 3.13  11 3.13  12 3.13  17 3.13  18 3.13  21 3.13  22 3.13
                            26 3.13  28 3.13  30 3.13  32 3.13
   3  0.000  0.500  0.000-   9 3.13  10 3.13  11 3.13  12 3.13  19 3.13  20 3.13  23 3.13  24 3.13
                            25 3.13  27 3.13  29 3.13  31 3.13
   4  0.500  0.500  0.000-   9 3.13  10 3.13  11 3.13  12 3.13  19 3.13  20 3.13  23 3.13  24 3.13
                            26 3.13  28 3.13  30 3.13  32 3.13
   5  0.000  0.000  0.500-  13 3.13  14 3.13  15 3.13  16 3.13  17 3.13  18 3.13  21 3.13  22 3.13
                            25 3.13  27 3.13  29 3.13  31 3.13
   6  0.500  0.000  0.500-  13 3.13  14 3.13  15 3.13  16 3.13  17 3.13  18 3.13  21 3.13  22 3.13
                            26 3.13  28 3.13  30 3.13  32 3.13
   7  0.000  0.500  0.500-  13 3.13  14 3.13  15 3.13  16 3.13  19 3.13  20 3.13  23 3.13  24 3.13
                            25 3.13  27 3.13  29 3.13  31 3.13
   8  0.500  0.500  0.500-  13 3.13  14 3.13  15 3.13  16 3.13  19 3.13  20 3.13  23 3.13  24 3.13
                            26 3.13  28 3.13  30 3.13  32 3.13
   9  0.250  0.250  0.000-   1 3.12   2 3.13   3 3.13   4 3.13  17 3.13  19 3.13  21 3.13  23 3.13
                            25 3.13  26 3.13  29 3.13  30 3.13
  10  0.750  0.250  0.000-   2 3.13   3 3.13   4 3.13  18 3.13  20 3.13  22 3.13  24 3.13  25 3.13
                            26 3.13  29 3.13  30 3.13   1 3.13
  11  0.250  0.750  0.000-   1 3.12   2 3.13   3 3.13   4 3.13  17 3.13  19 3.13  21 3.13  23 3.13
                            27 3.13  28 3.13  31 3.13  32 3.13
  12  0.750  0.750  0.000-   2 3.13   3 3.13   4 3.13  18 3.13  20 3.13  22 3.13  24 3.13  27 3.13
                            28 3.13  31 3.13  32 3.13   1 3.13
  13  0.250  0.250  0.500-   5 3.13   6 3.13   7 3.13   8 3.13  17 3.13  19 3.13  21 3.13  23 3.13
                            25 3.13  26 3.13  29 3.13  30 3.13
  14  0.750  0.250  0.500-   5 3.13   6 3.13   7 3.13   8 3.13  18 3.13  20 3.13  22 3.13  24 3.13
                            25 3.13  26 3.13  29 3.13  30 3.13
  15  0.250  0.750  0.500-   5 3.13   6 3.13   7 3.13   8 3.13  17 3.13  19 3.13  21 3.13  23 3.13
                            27 3.13  28 3.13  31 3.13  32 3.13
  16  0.750  0.750  0.500-   5 3.13   6 3.13   7 3.13   8 3.13  18 3.13  20 3.13  22 3.13  24 3.13
                            27 3.13  28 3.13  31 3.13  32 3.13
  17  0.250  0.000  0.250-   1 3.12   2 3.13   5 3.13   6 3.13   9 3.13  11 3.13  13 3.13  15 3.13
                            25 3.13  26 3.13  27 3.13  28 3.13
  18  0.750  0.000  0.250-   2 3.13   5 3.13   6 3.13  10 3.13  12 3.13  14 3.13  16 3.13  25 3.13
                            26 3.13  27 3.13  28 3.13   1 3.13
  19  0.250  0.500  0.250-   3 3.13   4 3.13   7 3.13   8 3.13   9 3.13  11 3.13  13 3.13  15 3.13
                            25 3.13  26 3.13  27 3.13  28 3.13
  20  0.750  0.500  0.250-   3 3.13   4 3.13   7 3.13   8 3.13  10 3.13  12 3.13  14 3.13  16 3.13
                            25 3.13  26 3.13  27 3.13  28 3.13
  21  0.250  0.000  0.750-   1 3.12   2 3.13   5 3.13   6 3.13   9 3.13  11 3.13  13 3.13  15 3.13
                            29 3.13  30 3.13  31 3.13  32 3.13
  22  0.750  0.000  0.750-   2 3.13   5 3.13   6 3.13  10 3.13  12 3.13  14 3.13  16 3.13  29 3.13
                            30 3.13  31 3.13  32 3.13   1 3.13
  23  0.250  0.500  0.750-   3 3.13   4 3.13   7 3.13   8 3.13   9 3.13  11 3.13  13 3.13  15 3.13
                            29 3.13  30 3.13  31 3.13  32 3.13
  24  0.750  0.500  0.750-   3 3.13   4 3.13   7 3.13   8 3.13  10 3.13  12 3.13  14 3.13  16 3.13
                            29 3.13  30 3.13  31 3.13  32 3.13
  25  0.000  0.250  0.250-   3 3.13   5 3.13   7 3.13   9 3.13  10 3.13  13 3.13  14 3.13  17 3.13
                            18 3.13  19 3.13  20 3.13   1 3.13
  26  0.500  0.250  0.250-   2 3.13   4 3.13   6 3.13   8 3.13   9 3.13  10 3.13  13 3.13  14 3.13
                            17 3.13  18 3.13  19 3.13  20 3.13
  27  0.000  0.750  0.250-   3 3.13   5 3.13   7 3.13  11 3.13  12 3.13  15 3.13  16 3.13  17 3.13
                            18 3.13  19 3.13  20 3.13   1 3.13
  28  0.500  0.750  0.250-   2 3.13   4 3.13   6 3.13   8 3.13  11 3.13  12 3.13  15 3.13  16 3.13
                            17 3.13  18 3.13  19 3.13  20 3.13
  29  0.000  0.250  0.750-   3 3.13   5 3.13   7 3.13   9 3.13  10 3.13  13 3.13  14 3.13  21 3.13
                            22 3.13  23 3.13  24 3.13   1 3.13
  30  0.500  0.250  0.750-   2 3.13   4 3.13   6 3.13   8 3.13   9 3.13  10 3.13  13 3.13  14 3.13
                            21 3.13  22 3.13  23 3.13  24 3.13
  31  0.000  0.750  0.750-   3 3.13   5 3.13   7 3.13  11 3.13  12 3.13  15 3.13  16 3.13  21 3.13
                            22 3.13  23 3.13  24 3.13   1 3.13
  32  0.500  0.750  0.750-   2 3.13   4 3.13   6 3.13   8 3.13  11 3.13  12 3.13  15 3.13  16 3.13
                            21 3.13  22 3.13  23 3.13  24 3.13

  LATTYP: Found a simple cubic cell.
 ALAT       =     8.8464460329

  Lattice vectors:

 A1 = (   8.8464460329,   0.0000000000,   0.0000000000)
 A2 = (   0.0000000000,   8.8464460329,   0.0000000000)
 A3 = (   0.0000000000,   0.0000000000,   8.8464460329)
 Subroutine PRICEL returns:
 Original cell was already a primitive cell.

Analysis of symmetry for initial positions (statically):

 Routine SETGRP: Setting up the symmetry group for a
 simple cubic supercell.

 Subroutine GETGRP returns: Found  8 space group operations
 (whereof  8 operations were pure point group operations)
 out of a pool of 48 trial point group operations.

The static configuration has the point symmetry C_4v.

Analysis of symmetry for dynamics (positions and initial velocities):

 Subroutine DYNSYM returns: Found  8 space group operations
 (whereof  8 operations were pure point group operations)
 out of a pool of  8 trial space group operations
 (whereof  8 operations were pure point group operations)
 and found also     1 'primitive' translations

The dynamic configuration has the point symmetry C_4v.

 KPOINTS: Automatic mesh

Automatic generation of k-mesh.

 Subroutine IBZKPT returns following result:

 Found    196 irreducible k-points:

 Following reciprocal coordinates:
            Coordinates               Weight
  0.000000  0.000000  0.000000      1.000000
  0.083333  0.000000  0.000000      2.000000
  0.166667  0.000000  0.000000      2.000000
  0.250000  0.000000  0.000000      2.000000
  0.333333  0.000000  0.000000      2.000000
  0.416667  0.000000  0.000000      2.000000
  0.500000  0.000000  0.000000      1.000000
  0.000000  0.083333  0.000000      4.000000
  0.083333  0.083333  0.000000      8.000000
  0.166667  0.083333  0.000000      8.000000
  0.250000  0.083333  0.000000      8.000000
  0.333333  0.083333  0.000000      8.000000
  0.416667  0.083333  0.000000      8.000000
  0.500000  0.083333  0.000000      4.000000
  0.000000  0.166667  0.000000      4.000000
  0.083333  0.166667  0.000000      8.000000
  0.166667  0.166667  0.000000      8.000000
  0.250000  0.166667  0.000000      8.000000
  0.333333  0.166667  0.000000      8.000000
  0.416667  0.166667  0.000000      8.000000
  0.500000  0.166667  0.000000      4.000000
  0.000000  0.250000  0.000000      4.000000
  0.083333  0.250000  0.000000      8.000000
  0.166667  0.250000  0.000000      8.000000
  0.250000  0.250000  0.000000      8.000000
  0.333333  0.250000  0.000000      8.000000
  0.416667  0.250000  0.000000      8.000000
  0.500000  0.250000  0.000000      4.000000
  0.000000  0.333333  0.000000      4.000000
  0.083333  0.333333  0.000000      8.000000
  0.166667  0.333333  0.000000      8.000000
  0.250000  0.333333  0.000000      8.000000
  0.333333  0.333333  0.000000      8.000000
  0.416667  0.333333  0.000000      8.000000
  0.500000  0.333333  0.000000      4.000000
  0.000000  0.416667  0.000000      4.000000
  0.083333  0.416667  0.000000      8.000000
  0.166667  0.416667  0.000000      8.000000
  0.250000  0.416667  0.000000      8.000000
  0.333333  0.416667  0.000000      8.000000
  0.416667  0.416667  0.000000      8.000000
  0.500000  0.416667  0.000000      4.000000
  0.000000  0.500000  0.000000      2.000000
  0.083333  0.500000  0.000000      4.000000
  0.166667  0.500000  0.000000      4.000000
  0.250000  0.500000  0.000000      4.000000
  0.333333  0.500000  0.000000      4.000000
  0.416667  0.500000  0.000000      4.000000
  0.500000  0.500000  0.000000      2.000000
  0.000000  0.083333  0.083333      4.000000
  0.083333  0.083333  0.083333      8.000000
  0.166667  0.083333  0.083333      8.000000
  0.250000  0.083333  0.083333      8.000000
  0.333333  0.083333  0.083333      8.000000
  0.416667  0.083333  0.083333      8.000000
  0.500000  0.083333  0.083333      4.000000
  0.000000  0.166667  0.083333      8.000000
  0.083333  0.166667  0.083333     16.000000
  0.166667  0.166667  0.083333     16.000000
  0.250000  0.166667  0.083333     16.000000
[...]
  0.500000  0.416667  0.416667      4.000000
  0.000000  0.500000  0.416667      4.000000
  0.083333  0.500000  0.416667      8.000000
  0.166667  0.500000  0.416667      8.000000
  0.250000  0.500000  0.416667      8.000000
  0.333333  0.500000  0.416667      8.000000
  0.416667  0.500000  0.416667      8.000000
  0.500000  0.500000  0.416667      4.000000
  0.000000  0.500000  0.500000      1.000000
  0.083333  0.500000  0.500000      2.000000
  0.166667  0.500000  0.500000      2.000000
  0.250000  0.500000  0.500000      2.000000
  0.333333  0.500000  0.500000      2.000000
  0.416667  0.500000  0.500000      2.000000
  0.500000  0.500000  0.500000      1.000000

 Following cartesian coordinates:
            Coordinates               Weight
  0.000000  0.000000  0.000000      1.000000
  0.009420  0.000000  0.000000      2.000000
  0.018840  0.000000  0.000000      2.000000
  0.028260  0.000000  0.000000      2.000000
  0.037680  0.000000  0.000000      2.000000
  0.047100  0.000000  0.000000      2.000000
  0.056520  0.000000  0.000000      1.000000
  0.000000  0.009420  0.000000      4.000000
  0.009420  0.009420  0.000000      8.000000
  0.018840  0.009420  0.000000      8.000000
[...]

 eigenvalues of (default mixing * dielectric matrix)
  average eigenvalue GAMMA=   1.1171
  1.1171

[...]

 eigenvalue-minimisations  : 46952
 total energy-change (2. order) :-0.3447713E-07  (-0.7861676E-10)
 number of electron  352.0000004 magnetization
 augmentation part   130.5260948 magnetization

 Broyden mixing:
  rms(total) = 0.40939E-05    rms(broyden)= 0.40923E-05
  rms(prec ) = 0.46418E-05
  weight for this iteration     100.00

 eigenvalues of (default mixing * dielectric matrix)
  average eigenvalue GAMMA=   1.6120
  2.9590  2.6824  2.4991  2.4991  1.0590  1.0590  1.0268  0.8655  0.7719  0.6987

[...]

----------------------------------------- Iteration    1(  16)  ---------------------------------------

 eigenvalue-minimisations  : 46360
 total energy-change (2. order) : 0.9840733E-08  (-0.5028681E-11)
 number of electron  352.0000004 magnetization
 augmentation part   130.5260948 magnetization

 Free energy of the ion-electron system (eV)
  alpha Z        PSCENC =      2770.06264378
  Ewald energy   TEWEN  =    -28896.72802246
  -1/2 Hartree   DENC   =     -4663.62280496
  -V(xc)+E(xc)   XCENC  =       453.21525496
  PAW double counting   =     23467.15749525   -22770.67962649
  entropy T*S    EENTRO =        -0.00070213
  eigenvalues    EBANDS =       -91.93580397
  atomic energy  EATOM  =     29633.78979189
  free energy    TOTEN  =       -98.74177413 eV

  energy without entropy =      -98.74107199  energy(sigma->0) =      -98.74142306

 average (electrostatic) potential at core
  the test charge radii are     1.2098
  (the norm of the test charge is              1.0000)
       1 -47.5030       2 -47.5030       3 -47.5030       4 -47.5030       5 -47.5030
       6 -47.5030       7 -47.5029       8 -47.5029       9 -47.5041      10 -47.5018
      11 -47.5041      12 -47.5018      13 -47.5030      14 -47.5029      15 -47.5030
      16 -47.5029      17 -47.5041      18 -47.5018      19 -47.5030      20 -47.5029
      21 -47.5041      22 -47.5018      23 -47.5030      24 -47.5029      25 -47.5029
      26 -47.5030      27 -47.5029      28 -47.5030      29 -47.5029      30 -47.5030
      31 -47.5029      32 -47.5030

 E-fermi :   3.0590     XC(G=0): -11.3307     alpha+bet : -8.0214
   add alpha+bet to get absolut eigen values

 k-point   1 :       0.0000    0.0000    0.0000
  band No.  band energies     occupation
      1      -4.5388      2.00000
      2      -2.5357      2.00000
      3      -2.5329      2.00000
      4      -2.5329      2.00000
      5      -2.5329      2.00000
      6      -2.5329      2.00000
      7      -2.5301      2.00000
      8      -2.4044      2.00000
      9      -2.4044      2.00000
     10      -2.4044      2.00000
     11      -2.4044      2.00000
     12      -2.1569      2.00000
     13      -2.1569      2.00000
     14      -2.1569      2.00000
     15      -1.9613      2.00000
     16      -1.9613      2.00000
     17      -1.9613      2.00000
     18      -1.5038      2.00000
     19      -1.5026      2.00000
     20      -1.5026      2.00000
     21      -1.5013      2.00000
     22      -1.5011      2.00000
     23      -1.5010      2.00000
     24      -1.5010      2.00000
     25      -1.5010      2.00000
     26      -1.5008      2.00000
     27      -1.4995      2.00000
     28      -1.4995      2.00000
     29      -1.4983      2.00000
     30      -1.3674      2.00000
     31      -1.3659      2.00000
     32      -1.3659      2.00000
     33      -1.3659      2.00000
     34      -1.3658      2.00000
     35      -1.3643      2.00000
     36      -1.3232      2.00000
     37      -1.3216      2.00000
     38      -1.3216      2.00000
     39      -1.3216      2.00000
     40      -1.3216      2.00000
     41      -1.3200      2.00000
     42      -0.9001      2.00000
     43      -0.8982      2.00000
     44      -0.8982      2.00000
     45      -0.8973      2.00000
     46      -0.8973      2.00000
     47      -0.8973      2.00000
     48      -0.8973      2.00000
     49      -0.8973      2.00000
     50      -0.8972      2.00000
     51      -0.8964      2.00000
     52      -0.8964      2.00000
     53      -0.8946      2.00000
     54      -0.8459      2.00000
     55      -0.8459      2.00000
     56      -0.8441      2.00000
     57      -0.8441      2.00000
     58      -0.8441      2.00000
     59      -0.8441      2.00000
     60      -0.8441      2.00000
[...]
    202       8.6804      0.00000
    203       8.6804      0.00000
    204       8.6807      0.00000
    205       8.6807      0.00000
    206       8.6807      0.00000
    207       8.6808      0.00000
    208       8.6811      0.00000
    209       8.6811      0.00000
    210       8.6838      0.00000
    211       8.6838      0.00000
    212      10.3874      0.00000
    213      10.3883      0.00000
    214      10.3887      0.00000
    215      10.3889      0.00000
    216      10.3893      0.00000

[...]

 k-point 196 :       0.5000    0.5000    0.5000
  band No.  band energies     occupation
      1      -3.0579      2.00000
      2      -3.0550      2.00000
      3      -3.0550      2.00000
      4      -3.0546      2.00000
      5      -3.0544      2.00000
      6      -3.0539      2.00000
      7      -3.0539      2.00000
      8      -3.0511      2.00000
      9      -1.7567      2.00000
     10      -1.7567      2.00000
     11      -1.7567      2.00000
     12      -1.7565      2.00000
     13      -1.7563      2.00000
     14      -1.7555      2.00000
     15      -1.7549      2.00000
     16      -1.7549      2.00000
     17      -1.7549      2.00000
     18      -1.7548      2.00000
     19      -1.7548      2.00000
     20      -1.7547      2.00000
     21      -1.7547      2.00000
     22      -1.7546      2.00000
     23      -1.7546      2.00000
     24      -1.7546      2.00000
     25      -1.7546      2.00000
     26      -1.7545      2.00000
     27      -1.7540      2.00000
     28      -1.7532      2.00000
     29      -1.7529      2.00000
     30      -1.7528      2.00000
     31      -1.7528      2.00000
     32      -1.7527      2.00000
     33      -1.0907      2.00000
     34      -1.0879      2.00000
     35      -1.0878      2.00000
     36      -1.0876      2.00000
     37      -1.0876      2.00000
     38      -1.0872      2.00000
     39      -1.0868      2.00000
     40      -1.0868      2.00000
     41      -1.0867      2.00000
     42      -1.0866      2.00000
     43      -1.0866      2.00000
     44      -1.0866      2.00000
     45      -1.0865      2.00000
     46      -1.0865      2.00000
     47      -1.0865      2.00000
     48      -1.0865      2.00000
     49      -1.0863      2.00000
     50      -1.0863      2.00000
     51      -1.0860      2.00000
     52      -1.0856      2.00000
     53      -1.0856      2.00000
     54      -1.0854      2.00000
     55      -1.0853      2.00000
     56      -1.0824      2.00000
     57      -0.6057      2.00000
     58      -0.6046      2.00000
     59      -0.6041      2.00000
     60      -0.6041      2.00000
[...]
    202       7.7701      0.00000
    203       7.7702      0.00000
    204       7.7702      0.00000
    205       7.7703      0.00000
    206       7.7703      0.00000
    207       7.7704      0.00000
    208       7.7704      0.00000
    209       7.7705      0.00000
    210       7.7708      0.00000
    211       7.7708      0.00000
    212       7.7711      0.00000
    213       7.7716      0.00000
    214       7.7729      0.00000
    215       7.7746      0.00000
    216       7.7746      0.00000

 soft charge-density along one line, spin component           1
         0         1         2         3         4         5         6         7         8         9
 total charge-density along one line

------------------------ aborting loop because EDIFF is reached ----------------------------------------

  FREE ENERGIE OF THE ION-ELECTRON SYSTEM (eV)
  free  energy   TOTEN  =       -98.741774 eV

  energy  without entropy=      -98.741072  energy(sigma->0) =      -98.741423

  FORCE on cell =-STRESS in cart. coord.  units (eV/reduce length):
  Direction    X        Y        Z        XY       YZ       ZX
  Alpha Z   2770.06   2770.06   2770.06
  Ewald    -9632.30  -9632.27  -9632.27      0.00     -0.00     -0.00
  Hartree   1554.53   1554.55   1554.55     -0.00     -0.00     -0.00
  E(xc)    -1572.59  -1572.59  -1572.59      0.00      0.00      0.00
  Local     2265.00   2264.95   2264.95     -0.00      0.00      0.00
  n-local  -1701.93  -1708.06  -1695.79      3.14      2.19      1.25
  augment   1377.15   1377.15   1377.15     -0.00     -0.00     -0.00
  Kinetic   4879.80   4873.89   4885.71      0.54     -0.39     -1.31
  Total      -60.27    -60.27    -60.27      0.00      0.00     -0.00
  in kB     -139.49   -139.49   -139.49      0.00      0.00     -0.00

 VOLUME and BASIS-vectors are now :
  energy-cutoff  :      750.00
  volume of cell :      692.32
      direct lattice vectors                 reciprocal lattice vectors
     8.846446033  0.000000000  0.000000000     0.113039745  0.000000000  0.000000000
     0.000000000  8.846446033  0.000000000     0.000000000  0.113039745  0.000000000
     0.000000000  0.000000000  8.846446033     0.000000000  0.000000000  0.113039745

  length of vectors
     8.846446033  8.846446033  8.846446033     0.113039745  0.113039745  0.113039745

 FORCES acting on ions
    electron-ion (+dipol)            ewald-force                    non-local-force                 convergence-correction
   0.330E+01 0.458E-13 0.196E-07   -.327E+01 0.426E-13 -.107E-13   -.356E-01 0.401E-20 -.664E-20   -.444E-04 0.973E-13 -.125E-12
   -.854E+00 0.870E-13 -.196E-07   0.863E+00 -.284E-13 -.142E-13   -.553E-02 0.667E-20 -.354E-20   -.155E-04 0.870E-13 -.212E-12
   0.272E+00 -.554E-13 -.580E-11   -.273E+00 0.213E-13 -.391E-13   0.390E-03 -.867E-20 -.577E-22   -.193E-05 -.210E-12 -.720E-13
   -.219E+00 0.113E-11 -.592E-11   0.214E+00 -.142E-13 0.142E-13   0.300E-02 0.947E-20 -.123E-20   0.311E-05 -.190E-12 -.108E-12
   0.272E+00 0.509E-13 -.172E-11   -.273E+00 -.391E-13 -.355E-13   0.390E-03 -.666E-21 0.466E-20   -.160E-05 0.930E-13 0.220E-13
   -.219E+00 0.387E-13 -.631E-12   0.214E+00 -.426E-13 0.142E-13   0.300E-02 0.244E-21 0.325E-20   0.303E-05 0.849E-13 0.892E-13
   0.114E+00 -.619E-13 0.213E-13   -.113E+00 0.355E-13 -.178E-13   -.947E-03 0.432E-20 -.813E-20   -.522E-05 -.207E-12 -.274E-13
   -.105E+00 -.504E-11 0.141E-11   0.105E+00 0.000E+00 -.142E-13   -.180E-03 -.388E-20 0.759E-21   0.510E-05 -.187E-12 -.104E-13
   -.417E+00 -.796E+00 0.585E-12   0.415E+00 0.796E+00 0.320E-13   0.371E-02 0.217E-02 0.172E-21   0.883E-05 0.131E-05 -.168E-12
   -.419E+00 0.790E+00 -.615E-11   0.417E+00 -.790E+00 0.178E-13   0.363E-02 -.209E-02 -.800E-21   0.966E-05 -.560E-05 -.124E-12
   -.417E+00 0.796E+00 0.466E-12   0.415E+00 -.796E+00 -.426E-13   0.371E-02 -.217E-02 0.241E-21   0.883E-05 -.131E-05 -.130E-12
   -.419E+00 -.790E+00 0.645E-11   0.417E+00 0.790E+00 -.426E-13   0.363E-02 0.209E-02 0.605E-20   0.966E-05 0.560E-05 -.101E-12
   -.121E-01 -.656E-01 -.130E-10   0.127E-01 0.655E-01 0.249E-13   -.286E-03 0.111E-03 -.736E-21   -.265E-05 -.229E-05 0.581E-13
   -.133E-01 0.655E-01 -.121E-10   0.139E-01 -.654E-01 -.178E-13   -.287E-03 -.117E-03 -.234E-20   0.459E-06 0.198E-06 0.980E-14
   -.121E-01 0.656E-01 -.129E-10   0.127E-01 -.655E-01 0.426E-13   -.286E-03 -.111E-03 0.251E-20   -.265E-05 0.229E-05 0.144E-13
   -.133E-01 -.655E-01 -.248E-10   0.139E-01 0.654E-01 0.426E-13   -.287E-03 0.117E-03 0.146E-20   0.459E-06 -.198E-06 -.140E-13
   -.417E+00 0.425E-13 -.796E+00   0.415E+00 -.178E-13 0.796E+00   0.371E-02 -.444E-20 0.217E-02   0.876E-05 0.535E-13 0.137E-05
   -.419E+00 0.422E-13 0.790E+00   0.417E+00 0.107E-13 -.790E+00   0.363E-02 -.103E-19 -.209E-02   0.959E-05 0.935E-13 -.566E-05
   -.121E-01 0.651E-12 -.656E-01   0.127E-01 0.711E-14 0.655E-01   -.286E-03 -.209E-20 0.111E-03   -.263E-05 -.167E-12 -.223E-05
   -.133E-01 0.766E-11 0.655E-01   0.139E-01 0.711E-14 -.654E-01   -.287E-03 -.324E-21 -.117E-03   0.478E-06 -.202E-12 0.136E-06
   -.417E+00 0.640E-13 0.796E+00   0.415E+00 -.426E-13 -.796E+00   0.371E-02 0.262E-20 -.217E-02   0.876E-05 0.959E-13 -.137E-05
   -.419E+00 0.497E-13 -.790E+00   0.417E+00 0.142E-13 0.790E+00   0.363E-02 -.391E-20 0.209E-02   0.959E-05 0.116E-12 0.566E-05
   -.121E-01 0.816E-12 0.656E-01   0.127E-01 0.142E-13 -.655E-01   -.286E-03 -.144E-20 -.111E-03   -.263E-05 -.207E-12 0.223E-05
   -.133E-01 -.524E-11 -.655E-01   0.139E-01 0.142E-13 0.654E-01   -.287E-03 -.684E-21 0.117E-03   0.478E-06 -.224E-12 -.136E-06
   0.511E+00 0.184E-02 0.184E-02   -.515E+00 -.183E-02 -.183E-02   0.229E-02 -.141E-06 -.141E-06   0.310E-06 -.167E-05 -.167E-05
   -.289E+00 -.531E-03 -.531E-03   0.290E+00 0.549E-03 0.549E-03   -.190E-03 -.107E-04 -.107E-04   -.226E-05 -.275E-05 -.275E-05
   0.511E+00 -.184E-02 0.184E-02   -.515E+00 0.183E-02 -.183E-02   0.229E-02 0.141E-06 -.141E-06   0.310E-06 0.167E-05 -.167E-05
   -.289E+00 0.531E-03 -.531E-03   0.290E+00 -.549E-03 0.549E-03   -.190E-03 0.107E-04 -.107E-04   -.226E-05 0.275E-05 -.275E-05
   0.511E+00 0.184E-02 -.184E-02   -.515E+00 -.183E-02 0.183E-02   0.229E-02 -.141E-06 0.141E-06   0.310E-06 -.167E-05 0.167E-05
   -.289E+00 -.531E-03 0.531E-03   0.290E+00 0.549E-03 -.549E-03   -.190E-03 -.107E-04 0.107E-04   -.226E-05 -.275E-05 0.275E-05
   0.511E+00 -.184E-02 -.184E-02   -.515E+00 0.183E-02 0.183E-02   0.229E-02 0.141E-06 0.141E-06   0.310E-06 0.167E-05 0.167E-05
   -.289E+00 0.531E-03 0.531E-03   0.290E+00 -.549E-03 -.549E-03   -.190E-03 0.107E-04 0.107E-04   -.226E-05 0.275E-05 0.275E-05
   -.149E-05 0.336E-11 0.284E-10   0.455E-13 0.396E-13 -.444E-13   0.589E-05 -.237E-19 0.447E-18   -.252E-06 -.301E-12 -.364E-12

 POSITION                                       TOTAL-FORCE (eV/Angst)
      0.01000      0.00000      0.00000        -0.008307     -0.000000      0.000000
      4.42322      0.00000      0.00000         0.003310      0.000000      0.000000
      0.00000      4.42322      0.00000        -0.000475     -0.000000     -0.000000
      4.42322      4.42322      0.00000        -0.001729     -0.000000      0.000000
      0.00000      0.00000      4.42322        -0.000475      0.000000      0.000000
      4.42322      0.00000      4.42322        -0.001729     -0.000000      0.000000
      0.00000      4.42322      4.42322         0.000243     -0.000000      0.000000
      4.42322      4.42322      4.42322        -0.000149      0.000000     -0.000000
      2.21161      2.21161      0.00000         0.001463      0.002208      0.000000
      6.63483      2.21161      0.00000         0.001348     -0.002057      0.000000
      2.21161      6.63483      0.00000         0.001463     -0.002208     -0.000000
      6.63483      6.63483      0.00000         0.001348      0.002057     -0.000000
      2.21161      2.21161      4.42322         0.000247      0.000011     -0.000000
      6.63483      2.21161      4.42322         0.000246     -0.000007      0.000000
      2.21161      6.63483      4.42322         0.000247     -0.000011      0.000000
      6.63483      6.63483      4.42322         0.000246      0.000007      0.000000
      2.21161      0.00000      2.21161         0.001463      0.000000      0.002208
      6.63483      0.00000      2.21161         0.001348      0.000000     -0.002057
      2.21161      4.42322      2.21161         0.000247      0.000000      0.000011
      6.63483      4.42322      2.21161         0.000246     -0.000000     -0.000007
      2.21161      0.00000      6.63483         0.001463     -0.000000     -0.002208
      6.63483      0.00000      6.63483         0.001348     -0.000000      0.002057
      2.21161      4.42322      6.63483         0.000247      0.000000     -0.000011
      6.63483      4.42322      6.63483         0.000246     -0.000000      0.000007
      0.00000      2.21161      2.21161        -0.001621      0.000006      0.000006
      4.42322      2.21161      2.21161         0.000644      0.000004      0.000004
      0.00000      6.63483      2.21161        -0.001621     -0.000006      0.000006
      4.42322      6.63483      2.21161         0.000644     -0.000004      0.000004
      0.00000      2.21161      6.63483        -0.001621      0.000006     -0.000006
      4.42322      2.21161      6.63483         0.000644      0.000004     -0.000004
      0.00000      6.63483      6.63483        -0.001621     -0.000006     -0.000006
      4.42322      6.63483      6.63483         0.000644     -0.000004     -0.000004
    total drift:                                0.000004      0.000000      0.000000

 mean value of Nose-termostat <S>:     1.000 mean value of <T> :     0.000
 mean temperature <T/S>/<1/S>  :     0.000