 vasp.4.6.28 25Jul05 complex
 executed on             LinuxIFC date 2017.01.10  03:59:34

 INCAR:
 POTCAR:   PAW_PBE Ag 06Sep2000
 POTCAR:   PAW_PBE Ag 06Sep2000
   VRHFIN =Ag : s1 d10

   TITEL  = PAW_PBE Ag 06Sep2000
   POMASS =  107.868; ZVAL   =   11.000    mass and valenz
   ENMAX  =  249.846; ENMIN  =  187.385 eV
   QCUT   =   -4.285; QGAM   =    8.570    optimization parameters

   Description
     l     E      TYP  RCUT    TYP  RCUT
     2   .000     23  2.400
     2   .000     23  2.400
     0   .000     23  2.400
     0   .000     23  2.400
     1  -.200     23  2.400
     1  1.500     23  2.400
     3   .000      7   .000

 PAW_PBE Ag 06Sep2000                   :

 POSCAR: Ag
  positions in direct lattice

 ion  position               nearest neighbor table
   1  0.001  0.000  0.000-   9 2.88  11 2.88  17 2.88  21 2.88  25 2.88  27 2.88  29 2.88  31 2.88
                            18 2.89  22 2.89  10 2.89  12 2.89
   2  0.500  0.000  0.000-   9 2.88  10 2.88  11 2.88  12 2.88  17 2.88  18 2.88  21 2.88  22 2.88
                            26 2.88  28 2.88  30 2.88  32 2.88
   3  0.000  0.500  0.000-   9 2.88  10 2.88  11 2.88  12 2.88  19 2.88  20 2.88  23 2.88  24 2.88
                            25 2.88  27 2.88  29 2.88  31 2.88
   4  0.500  0.500  0.000-   9 2.88  10 2.88  11 2.88  12 2.88  19 2.88  20 2.88  23 2.88  24 2.88
                            26 2.88  28 2.88  30 2.88  32 2.88
   5  0.000  0.000  0.500-  13 2.88  14 2.88  15 2.88  16 2.88  17 2.88  18 2.88  21 2.88  22 2.88
                            25 2.88  27 2.88  29 2.88  31 2.88
   6  0.500  0.000  0.500-  13 2.88  14 2.88  15 2.88  16 2.88  17 2.88  18 2.88  21 2.88  22 2.88
                            26 2.88  28 2.88  30 2.88  32 2.88
   7  0.000  0.500  0.500-  13 2.88  14 2.88  15 2.88  16 2.88  19 2.88  20 2.88  23 2.88  24 2.88
                            25 2.88  27 2.88  29 2.88  31 2.88
   8  0.500  0.500  0.500-  13 2.88  14 2.88  15 2.88  16 2.88  19 2.88  20 2.88  23 2.88  24 2.88
                            26 2.88  28 2.88  30 2.88  32 2.88
   9  0.250  0.250  0.000-   1 2.88   2 2.88   3 2.88   4 2.88  17 2.88  19 2.88  21 2.88  23 2.88
                            25 2.88  26 2.88  29 2.88  30 2.88
  10  0.750  0.250  0.000-   2 2.88   3 2.88   4 2.88  18 2.88  20 2.88  22 2.88  24 2.88  25 2.88
                            26 2.88  29 2.88  30 2.88   1 2.89
  11  0.250  0.750  0.000-   1 2.88   2 2.88   3 2.88   4 2.88  17 2.88  19 2.88  21 2.88  23 2.88
                            27 2.88  28 2.88  31 2.88  32 2.88
  12  0.750  0.750  0.000-   2 2.88   3 2.88   4 2.88  18 2.88  20 2.88  22 2.88  24 2.88  27 2.88
                            28 2.88  31 2.88  32 2.88   1 2.89
  13  0.250  0.250  0.500-   5 2.88   6 2.88   7 2.88   8 2.88  17 2.88  19 2.88  21 2.88  23 2.88
                            25 2.88  26 2.88  29 2.88  30 2.88
  14  0.750  0.250  0.500-   5 2.88   6 2.88   7 2.88   8 2.88  18 2.88  20 2.88  22 2.88  24 2.88
                            25 2.88  26 2.88  29 2.88  30 2.88
  15  0.250  0.750  0.500-   5 2.88   6 2.88   7 2.88   8 2.88  17 2.88  19 2.88  21 2.88  23 2.88
                            27 2.88  28 2.88  31 2.88  32 2.88
  16  0.750  0.750  0.500-   5 2.88   6 2.88   7 2.88   8 2.88  18 2.88  20 2.88  22 2.88  24 2.88
                            27 2.88  28 2.88  31 2.88  32 2.88
  17  0.250  0.000  0.250-   1 2.88   2 2.88   5 2.88   6 2.88   9 2.88  11 2.88  13 2.88  15 2.88
                            25 2.88  26 2.88  27 2.88  28 2.88
  18  0.750  0.000  0.250-   2 2.88   5 2.88   6 2.88  10 2.88  12 2.88  14 2.88  16 2.88  25 2.88
                            26 2.88  27 2.88  28 2.88   1 2.89
  19  0.250  0.500  0.250-   3 2.88   4 2.88   7 2.88   8 2.88   9 2.88  11 2.88  13 2.88  15 2.88
                            25 2.88  26 2.88  27 2.88  28 2.88
  20  0.750  0.500  0.250-   3 2.88   4 2.88   7 2.88   8 2.88  10 2.88  12 2.88  14 2.88  16 2.88
                            25 2.88  26 2.88  27 2.88  28 2.88
  21  0.250  0.000  0.750-   1 2.88   2 2.88   5 2.88   6 2.88   9 2.88  11 2.88  13 2.88  15 2.88
                            29 2.88  30 2.88  31 2.88  32 2.88
  22  0.750  0.000  0.750-   2 2.88   5 2.88   6 2.88  10 2.88  12 2.88  14 2.88  16 2.88  29 2.88
                            30 2.88  31 2.88  32 2.88   1 2.89
  23  0.250  0.500  0.750-   3 2.88   4 2.88   7 2.88   8 2.88   9 2.88  11 2.88  13 2.88  15 2.88
                            29 2.88  30 2.88  31 2.88  32 2.88
  24  0.750  0.500  0.750-   3 2.88   4 2.88   7 2.88   8 2.88  10 2.88  12 2.88  14 2.88  16 2.88
                            29 2.88  30 2.88  31 2.88  32 2.88
  25  0.000  0.250  0.250-   3 2.88   5 2.88   7 2.88   9 2.88  10 2.88  13 2.88  14 2.88  17 2.88
                            18 2.88  19 2.88  20 2.88   1 2.88
  26  0.500  0.250  0.250-   2 2.88   4 2.88   6 2.88   8 2.88   9 2.88  10 2.88  13 2.88  14 2.88
                            17 2.88  18 2.88  19 2.88  20 2.88
  27  0.000  0.750  0.250-   3 2.88   5 2.88   7 2.88  11 2.88  12 2.88  15 2.88  16 2.88  17 2.88
                            18 2.88  19 2.88  20 2.88   1 2.88
  28  0.500  0.750  0.250-   2 2.88   4 2.88   6 2.88   8 2.88  11 2.88  12 2.88  15 2.88  16 2.88
                            17 2.88  18 2.88  19 2.88  20 2.88
  29  0.000  0.250  0.750-   3 2.88   5 2.88   7 2.88   9 2.88  10 2.88  13 2.88  14 2.88  21 2.88
                            22 2.88  23 2.88  24 2.88   1 2.88
  30  0.500  0.250  0.750-   2 2.88   4 2.88   6 2.88   8 2.88   9 2.88  10 2.88  13 2.88  14 2.88
                            21 2.88  22 2.88  23 2.88  24 2.88
  31  0.000  0.750  0.750-   3 2.88   5 2.88   7 2.88  11 2.88  12 2.88  15 2.88  16 2.88  21 2.88
                            22 2.88  23 2.88  24 2.88   1 2.88
  32  0.500  0.750  0.750-   2 2.88   4 2.88   6 2.88   8 2.88  11 2.88  12 2.88  15 2.88  16 2.88
                            21 2.88  22 2.88  23 2.88  24 2.88

  LATTYP: Found a simple cubic cell.
 ALAT       =     8.1599205720

  Lattice vectors:

 A1 = (   8.1599205720,   0.0000000000,   0.0000000000)
 A2 = (   0.0000000000,   8.1599205720,   0.0000000000)
 A3 = (   0.0000000000,   0.0000000000,   8.1599205720)
 Subroutine PRICEL returns:
 Original cell was already a primitive cell.

Analysis of symmetry for initial positions (statically):

 Routine SETGRP: Setting up the symmetry group for a
 simple cubic supercell.

 Subroutine GETGRP returns: Found  8 space group operations
 (whereof  8 operations were pure point group operations)
 out of a pool of 48 trial point group operations.

The static configuration has the point symmetry C_4v.

Analysis of symmetry for dynamics (positions and initial velocities):

 Subroutine DYNSYM returns: Found  8 space group operations
 (whereof  8 operations were pure point group operations)
 out of a pool of  8 trial space group operations
 (whereof  8 operations were pure point group operations)
 and found also     1 'primitive' translations

The dynamic configuration has the point symmetry C_4v.

 KPOINTS: Automatic mesh

Automatic generation of k-mesh.

 Subroutine IBZKPT returns following result:

 Found    196 irreducible k-points:

 Following reciprocal coordinates:
            Coordinates               Weight
  0.000000  0.000000  0.000000      1.000000
  0.083333  0.000000  0.000000      2.000000
  0.166667  0.000000  0.000000      2.000000
  0.250000  0.000000  0.000000      2.000000
  0.333333  0.000000  0.000000      2.000000
  0.416667  0.000000  0.000000      2.000000
  0.500000  0.000000  0.000000      1.000000
  0.000000  0.083333  0.000000      4.000000
  0.083333  0.083333  0.000000      8.000000
  0.166667  0.083333  0.000000      8.000000
  0.250000  0.083333  0.000000      8.000000
  0.333333  0.083333  0.000000      8.000000
  0.416667  0.083333  0.000000      8.000000
  0.500000  0.083333  0.000000      4.000000
  0.000000  0.166667  0.000000      4.000000
  0.083333  0.166667  0.000000      8.000000
  0.166667  0.166667  0.000000      8.000000
  0.250000  0.166667  0.000000      8.000000
  0.333333  0.166667  0.000000      8.000000
  0.416667  0.166667  0.000000      8.000000
  0.500000  0.166667  0.000000      4.000000
  0.000000  0.250000  0.000000      4.000000
  0.083333  0.250000  0.000000      8.000000
  0.166667  0.250000  0.000000      8.000000
  0.250000  0.250000  0.000000      8.000000
  0.333333  0.250000  0.000000      8.000000
  0.416667  0.250000  0.000000      8.000000
  0.500000  0.250000  0.000000      4.000000
  0.000000  0.333333  0.000000      4.000000
  0.083333  0.333333  0.000000      8.000000
  0.166667  0.333333  0.000000      8.000000
  0.250000  0.333333  0.000000      8.000000
  0.333333  0.333333  0.000000      8.000000
  0.416667  0.333333  0.000000      8.000000
  0.500000  0.333333  0.000000      4.000000
  0.000000  0.416667  0.000000      4.000000
  0.083333  0.416667  0.000000      8.000000
  0.166667  0.416667  0.000000      8.000000
  0.250000  0.416667  0.000000      8.000000
  0.333333  0.416667  0.000000      8.000000
  0.416667  0.416667  0.000000      8.000000
  0.500000  0.416667  0.000000      4.000000
  0.000000  0.500000  0.000000      2.000000
  0.083333  0.500000  0.000000      4.000000
  0.166667  0.500000  0.000000      4.000000
  0.250000  0.500000  0.000000      4.000000
  0.333333  0.500000  0.000000      4.000000
  0.416667  0.500000  0.000000      4.000000
  0.500000  0.500000  0.000000      2.000000
  0.000000  0.083333  0.083333      4.000000
  0.083333  0.083333  0.083333      8.000000
  0.166667  0.083333  0.083333      8.000000
  0.250000  0.083333  0.083333      8.000000
  0.333333  0.083333  0.083333      8.000000
  0.416667  0.083333  0.083333      8.000000
  0.500000  0.083333  0.083333      4.000000
  0.000000  0.166667  0.083333      8.000000
  0.083333  0.166667  0.083333     16.000000
  0.166667  0.166667  0.083333     16.000000
  0.250000  0.166667  0.083333     16.000000
[...]
  0.500000  0.416667  0.416667      4.000000
  0.000000  0.500000  0.416667      4.000000
  0.083333  0.500000  0.416667      8.000000
  0.166667  0.500000  0.416667      8.000000
  0.250000  0.500000  0.416667      8.000000
  0.333333  0.500000  0.416667      8.000000
  0.416667  0.500000  0.416667      8.000000
  0.500000  0.500000  0.416667      4.000000
  0.000000  0.500000  0.500000      1.000000
  0.083333  0.500000  0.500000      2.000000
  0.166667  0.500000  0.500000      2.000000
  0.250000  0.500000  0.500000      2.000000
  0.333333  0.500000  0.500000      2.000000
  0.416667  0.500000  0.500000      2.000000
  0.500000  0.500000  0.500000      1.000000

 Following cartesian coordinates:
            Coordinates               Weight
  0.000000  0.000000  0.000000      1.000000
  0.010213  0.000000  0.000000      2.000000
  0.020425  0.000000  0.000000      2.000000
  0.030638  0.000000  0.000000      2.000000
  0.040850  0.000000  0.000000      2.000000
  0.051063  0.000000  0.000000      2.000000
  0.061275  0.000000  0.000000      1.000000
  0.000000  0.010213  0.000000      4.000000
  0.010213  0.010213  0.000000      8.000000
  0.020425  0.010213  0.000000      8.000000
[...]

 eigenvalues of (default mixing * dielectric matrix)
  average eigenvalue GAMMA=   1.0903
  1.0903

[...]

 eigenvalue-minimisations  : 89168
 total energy-change (2. order) :-0.8527443E-03  (-0.2596501E-03)
 number of electron  352.0000011 magnetization
 augmentation part   168.5842561 magnetization

[...]

 Broyden mixing:
  rms(total) = 0.47138E-05    rms(broyden)= 0.47101E-05
  rms(prec ) = 0.57534E-05
  weight for this iteration     100.00

 eigenvalues of (default mixing * dielectric matrix)
  average eigenvalue GAMMA=   1.6062
  2.9367  2.5437  2.5437  1.7713  1.1002  1.0158  1.0158  0.7641  0.7641

[...]

----------------------------------------- Iteration    1(  15)  ---------------------------------------

 eigenvalue-minimisations  : 45688
 total energy-change (2. order) : 0.1768058E-08  (-0.1931078E-10)
 number of electron  352.0000011 magnetization
 augmentation part   168.5703781 magnetization

 Free energy of the ion-electron system (eV)
  alpha Z        PSCENC =      3346.80653808
  Ewald energy   TEWEN  =    -31327.91764054
  -1/2 Hartree   DENC   =     -6071.12552457
  -V(xc)+E(xc)   XCENC  =      -356.08751276
  PAW double counting   =     27884.13850477   -26476.94134377
  entropy T*S    EENTRO =        -0.00108936
  eigenvalues    EBANDS =      -285.89993991
  atomic energy  EATOM  =     33197.19690173
  free energy    TOTEN  =       -89.83110632 eV

  energy without entropy =      -89.83001696  energy(sigma->0) =      -89.83056164

 average (electrostatic) potential at core
  the test charge radii are     1.1249
  (the norm of the test charge is              1.0000)
       1 -41.2493       2 -41.2493       3 -41.2493       4 -41.2493       5 -41.2493
       6 -41.2493       7 -41.2493       8 -41.2493       9 -41.2505      10 -41.2481
      11 -41.2505      12 -41.2481      13 -41.2494      14 -41.2492      15 -41.2494
      16 -41.2492      17 -41.2505      18 -41.2481      19 -41.2494      20 -41.2492
      21 -41.2505      22 -41.2481      23 -41.2494      24 -41.2492      25 -41.2493
      26 -41.2493      27 -41.2493      28 -41.2493      29 -41.2493      30 -41.2493
      31 -41.2493      32 -41.2493

 E-fermi :   3.5757     XC(G=0): -12.2348     alpha+bet : -8.5759
   add alpha+bet to get absolut eigen values

 k-point   1 :       0.0000    0.0000    0.0000
  band No.  band energies     occupation
      1      -4.2400      2.00000
      2      -2.9375      2.00000
      3      -2.9375      2.00000
      4      -2.9375      2.00000
      5      -2.8867      2.00000
      6      -2.8867      2.00000
      7      -2.8867      2.00000
      8      -2.8867      2.00000
      9      -2.7981      2.00000
     10      -2.7981      2.00000
     11      -2.7981      2.00000
     12      -2.4623      2.00000
     13      -2.4604      2.00000
     14      -2.4604      2.00000
     15      -2.4604      2.00000
     16      -2.4604      2.00000
     17      -2.4585      2.00000
     18      -2.1824      2.00000
     19      -2.1806      2.00000
     20      -2.1806      2.00000
     21      -2.1806      2.00000
     22      -2.1806      2.00000
     23      -2.1788      2.00000
     24      -2.0884      2.00000
     25      -2.0866      2.00000
     26      -2.0866      2.00000
     27      -2.0866      2.00000
     28      -2.0866      2.00000
     29      -2.0848      2.00000
     30      -1.8420      2.00000
     31      -1.8420      2.00000
     32      -1.8416      2.00000
     33      -1.8408      2.00000
     34      -1.8404      2.00000
     35      -1.8404      2.00000
     36      -1.8404      2.00000
     37      -1.8404      2.00000
     38      -1.8401      2.00000
     39      -1.8393      2.00000
     40      -1.8389      2.00000
     41      -1.8389      2.00000
     42      -1.6234      2.00000
     43      -1.6211      2.00000
     44      -1.6211      2.00000
     45      -1.6201      2.00000
     46      -1.6201      2.00000
     47      -1.6201      2.00000
     48      -1.6201      2.00000
     49      -1.6201      2.00000
     50      -1.6200      2.00000
     51      -1.6191      2.00000
     52      -1.6191      2.00000
     53      -1.6169      2.00000
     54      -1.5634      2.00000
     55      -1.5634      2.00000
     56      -1.5615      2.00000
     57      -1.5615      2.00000
     58      -1.5614      2.00000
     59      -1.5614      2.00000
     60      -1.5614      2.00000
[...]
    198       9.5462      0.00000
    199       9.5466      0.00000
    200       9.5466      0.00000
    201       9.5492      0.00000
    202       9.5492      0.00000
    203      10.3432      0.00000
    204      10.3432      0.00000
    205      10.3432      0.00000
    206      10.7002      0.00000
    207      10.7002      0.00000
    208      10.7002      0.00000
    209      10.7003      0.00000
    210      10.7003      0.00000
    211      10.7003      0.00000
    212      11.7679      0.00000

[...]

 k-point 196 :       0.5000    0.5000    0.5000
  band No.  band energies     occupation
      1      -2.8689      2.00000
      2      -2.8672      2.00000
      3      -2.8672      2.00000
      4      -2.8672      2.00000
      5      -2.8662      2.00000
      6      -2.8662      2.00000
      7      -2.8661      2.00000
      8      -2.8645      2.00000
      9      -2.4203      2.00000
     10      -2.4198      2.00000
     11      -2.4198      2.00000
     12      -2.4197      2.00000
     13      -2.4185      2.00000
     14      -2.4180      2.00000
     15      -2.4178      2.00000
     16      -2.4178      2.00000
     17      -2.4178      2.00000
     18      -2.4177      2.00000
     19      -2.4177      2.00000
     20      -2.4177      2.00000
     21      -2.4175      2.00000
     22      -2.4175      2.00000
     23      -2.4175      2.00000
     24      -2.4174      2.00000
     25      -2.4174      2.00000
     26      -2.4174      2.00000
     27      -2.4172      2.00000
     28      -2.4168      2.00000
     29      -2.4156      2.00000
     30      -2.4155      2.00000
     31      -2.4155      2.00000
     32      -2.4149      2.00000
     33      -1.8549      2.00000
     34      -1.8513      2.00000
     35      -1.8512      2.00000
     36      -1.8510      2.00000
     37      -1.8510      2.00000
     38      -1.8504      2.00000
     39      -1.8501      2.00000
     40      -1.8501      2.00000
     41      -1.8500      2.00000
     42      -1.8499      2.00000
     43      -1.8499      2.00000
     44      -1.8499      2.00000
     45      -1.8498      2.00000
     46      -1.8498      2.00000
     47      -1.8498      2.00000
     48      -1.8498      2.00000
     49      -1.8496      2.00000
     50      -1.8496      2.00000
     51      -1.8493      2.00000
     52      -1.8487      2.00000
     53      -1.8487      2.00000
     54      -1.8485      2.00000
     55      -1.8485      2.00000
     56      -1.8449      2.00000
     57      -1.0869      2.00000
     58      -1.0869      2.00000
     59      -1.0866      2.00000
     60      -1.0863      2.00000
[...]
    198       9.7369      0.00000
    199       9.7371      0.00000
    200       9.7373      0.00000
    201       9.7374      0.00000
    202       9.7374      0.00000
    203       9.7375      0.00000
    204       9.7376      0.00000
    205       9.7376      0.00000
    206       9.7378      0.00000
    207       9.7378      0.00000
    208       9.7381      0.00000
    209       9.7385      0.00000
    210       9.7390      0.00000
    211       9.7393      0.00000
    212       9.7403      0.00000

 soft charge-density along one line, spin component           1
         0         1         2         3         4         5         6         7         8         9
 total charge-density along one line

------------------------ aborting loop because EDIFF is reached ----------------------------------------

  FREE ENERGIE OF THE ION-ELECTRON SYSTEM (eV)
  free  energy   TOTEN  =       -89.831106 eV

  energy  without entropy=      -89.830017  energy(sigma->0) =      -89.830562

  FORCE on cell =-STRESS in cart. coord.  units (eV/reduce length):
  Direction    X        Y        Z        XY       YZ       ZX
  Alpha Z   3346.81   3346.81   3346.81
  Ewald   -10442.71 -10442.67 -10442.67     -0.00      0.00      0.00
  Hartree   2023.69   2023.72   2023.72     -0.00     -0.00     -0.00
  E(xc)    -1864.07  -1864.07  -1864.07      0.00     -0.00     -0.00
  Local     3337.06   3336.99   3336.99     -0.00     -0.00      0.00
  n-local  -2081.13  -2085.19  -2077.07      1.92      1.22      0.52
  augment   1342.64   1342.64   1342.64     -0.00     -0.00     -0.00
  Kinetic   4359.69   4352.94   4366.45      0.79     -0.61     -2.01
  Total       21.98     21.98     21.98      0.00      0.00     -0.00
  in kB       64.81     64.81     64.81      0.00      0.00     -0.00

 VOLUME and BASIS-vectors are now :
  energy-cutoff  :      750.00
  volume of cell :      543.32
      direct lattice vectors                 reciprocal lattice vectors
     8.159920572  0.000000000  0.000000000     0.122550212  0.000000000  0.000000000
     0.000000000  8.159920572  0.000000000     0.000000000  0.122550212  0.000000000
     0.000000000  0.000000000  8.159920572     0.000000000  0.000000000  0.122550212

  length of vectors
     8.159920572  8.159920572  8.159920572     0.122550212  0.122550212  0.122550212

 FORCES acting on ions
    electron-ion (+dipol)            ewald-force                    non-local-force                 convergence-correction
   0.413E+01 0.815E-13 0.531E-07   -.416E+01 0.924E-13 -.213E-13   -.241E-01 -.224E-19 -.186E-19   -.180E-04 0.500E-13 -.148E-12
   -.109E+01 0.234E-12 -.545E-07   0.110E+01 -.711E-13 -.284E-13   -.851E-02 0.130E-19 0.724E-20   0.190E-04 0.539E-13 -.260E-12
   0.345E+00 -.125E-12 -.222E-10   -.348E+00 -.533E-13 -.142E-13   0.261E-02 0.482E-20 -.503E-20   -.422E-05 -.214E-12 -.673E-13
   -.278E+00 0.113E-11 -.222E-10   0.273E+00 -.568E-13 -.426E-13   0.411E-02 -.394E-20 0.152E-20   -.347E-05 -.215E-12 -.110E-12
   0.345E+00 0.743E-13 -.850E-10   -.348E+00 -.746E-13 -.391E-13   0.261E-02 -.511E-21 -.637E-20   -.378E-05 0.601E-13 0.233E-13
   -.278E+00 0.220E-13 -.836E-10   0.273E+00 -.711E-13 0.142E-13   0.411E-02 -.315E-20 -.224E-20   -.356E-05 0.649E-13 0.102E-12
   0.144E+00 -.118E-12 0.338E-10   -.144E+00 -.817E-13 -.213E-13   -.632E-03 0.170E-20 0.636E-20   0.482E-05 -.226E-12 -.678E-13
   -.134E+00 -.626E-11 0.354E-10   0.134E+00 -.853E-13 0.426E-13   -.801E-03 -.464E-20 0.260E-20   -.245E-05 -.225E-12 -.446E-13
   -.524E+00 -.101E+01 0.371E-10   0.528E+00 0.102E+01 0.107E-13   0.423E-02 0.250E-02 -.319E-20   0.573E-05 0.113E-04 -.197E-12
   -.528E+00 0.100E+01 0.291E-10   0.531E+00 -.101E+01 0.391E-13   0.427E-02 -.254E-02 0.137E-19   0.110E-05 -.847E-05 -.137E-12
   -.524E+00 0.101E+01 0.370E-10   0.528E+00 -.102E+01 0.000E+00   0.423E-02 -.250E-02 0.949E-20   0.573E-05 -.113E-04 -.147E-12
   -.528E+00 -.100E+01 0.445E-10   0.531E+00 0.101E+01 -.568E-13   0.427E-02 0.254E-02 -.105E-19   0.110E-05 0.847E-05 -.105E-12
   -.144E-01 -.838E-01 0.896E-10   0.161E-01 0.834E-01 -.249E-13   -.144E-02 0.355E-03 -.548E-20   0.316E-05 0.339E-05 0.554E-13
   -.161E-01 0.836E-01 0.905E-10   0.177E-01 -.833E-01 0.320E-13   -.143E-02 -.356E-03 0.452E-20   -.621E-06 -.490E-06 -.130E-13
   -.144E-01 0.838E-01 0.898E-10   0.161E-01 -.834E-01 -.284E-13   -.144E-02 -.355E-03 0.536E-20   0.316E-05 -.339E-05 -.230E-14
   -.161E-01 -.836E-01 0.751E-10   0.177E-01 0.833E-01 0.284E-13   -.143E-02 0.356E-03 -.715E-20   -.621E-06 0.490E-06 -.382E-13
   -.524E+00 0.339E-13 -.101E+01   0.528E+00 -.107E-13 0.102E+01   0.423E-02 -.155E-20 0.250E-02   0.565E-05 0.268E-13 0.114E-04
   -.528E+00 0.601E-13 0.100E+01   0.531E+00 -.107E-13 -.101E+01   0.427E-02 -.499E-20 -.254E-02   0.102E-05 0.644E-13 -.854E-05
   -.144E-01 0.787E-12 -.838E-01   0.161E-01 -.213E-13 0.834E-01   -.144E-02 0.329E-20 0.355E-03   0.318E-05 -.182E-12 0.346E-05
   -.161E-01 0.919E-11 0.836E-01   0.177E-01 -.213E-13 -.833E-01   -.143E-02 0.184E-20 -.356E-03   -.598E-06 -.221E-12 -.562E-06
   -.524E+00 0.118E-12 0.101E+01   0.528E+00 -.284E-13 -.102E+01   0.423E-02 0.863E-20 -.250E-02   0.565E-05 0.786E-13 -.114E-04
   -.528E+00 0.871E-13 -.100E+01   0.531E+00 -.284E-13 0.101E+01   0.427E-02 0.409E-20 0.254E-02   0.102E-05 0.940E-13 0.854E-05
   -.144E-01 0.102E-11 0.838E-01   0.161E-01 -.426E-13 -.834E-01   -.144E-02 0.390E-20 -.355E-03   0.318E-05 -.235E-12 -.346E-05
   -.161E-01 -.662E-11 -.836E-01   0.177E-01 -.426E-13 0.833E-01   -.143E-02 0.322E-20 0.356E-03   -.598E-06 -.251E-12 0.562E-06
   0.653E+00 0.253E-02 0.253E-02   -.656E+00 -.253E-02 -.253E-02   0.186E-02 -.159E-04 -.159E-04   -.891E-05 0.157E-05 0.157E-05
   -.366E+00 -.745E-03 -.745E-03   0.369E+00 0.758E-03 0.758E-03   -.234E-02 -.128E-04 -.128E-04   0.242E-05 0.120E-05 0.120E-05
   0.653E+00 -.253E-02 0.253E-02   -.656E+00 0.253E-02 -.253E-02   0.186E-02 0.159E-04 -.159E-04   -.891E-05 -.157E-05 0.157E-05
   -.366E+00 0.745E-03 -.745E-03   0.369E+00 -.758E-03 0.758E-03   -.234E-02 0.128E-04 -.128E-04   0.242E-05 -.120E-05 0.120E-05
   0.653E+00 0.253E-02 -.253E-02   -.656E+00 -.253E-02 0.253E-02   0.186E-02 -.159E-04 0.159E-04   -.891E-05 0.157E-05 -.157E-05
   -.366E+00 -.745E-03 0.745E-03   0.369E+00 0.758E-03 -.758E-03   -.234E-02 -.128E-04 0.128E-04   0.242E-05 0.120E-05 -.120E-05
   0.653E+00 -.253E-02 -.253E-02   -.656E+00 0.253E-02 0.253E-02   0.186E-02 0.159E-04 0.159E-04   -.891E-05 -.157E-05 -.157E-05
   -.366E+00 0.745E-03 0.745E-03   0.369E+00 -.758E-03 -.758E-03   -.234E-02 0.128E-04 0.128E-04   0.242E-05 -.120E-05 -.120E-05
   0.106E-06 0.234E-11 -.525E-09   0.167E-13 0.189E-12 0.989E-13   -.105E-05 0.117E-17 0.171E-18   -.425E-06 -.736E-12 -.428E-12

 POSITION                                       TOTAL-FORCE (eV/Angst)
      0.01000      0.00000      0.00000        -0.060798     -0.000000      0.000000
      4.07996      0.00000      0.00000         0.001182     -0.000000      0.000000
      0.00000      4.07996      0.00000        -0.000394     -0.000000      0.000000
      4.07996      4.07996      0.00000        -0.000425      0.000000     -0.000000
      0.00000      0.00000      4.07996        -0.000394     -0.000000      0.000000
      4.07996      0.00000      4.07996        -0.000425     -0.000000      0.000000
      0.00000      4.07996      4.07996        -0.000238     -0.000000      0.000000
      4.07996      4.07996      4.07996         0.000004     -0.000000      0.000000
      2.03998      2.03998      0.00000         0.008082      0.009455      0.000000
      6.11994      2.03998      0.00000         0.007847     -0.009119     -0.000000
      2.03998      6.11994      0.00000         0.008082     -0.009455     -0.000000
      6.11994      6.11994      0.00000         0.007847      0.009119     -0.000000
      2.03998      2.03998      4.07996         0.000221      0.000018     -0.000000
      6.11994      2.03998      4.07996         0.000224     -0.000016     -0.000000
      2.03998      6.11994      4.07996         0.000221     -0.000018     -0.000000
      6.11994      6.11994      4.07996         0.000224      0.000016     -0.000000
      2.03998      0.00000      2.03998         0.008082     -0.000000      0.009455
      6.11994      0.00000      2.03998         0.007847      0.000000     -0.009119
      2.03998      4.07996      2.03998         0.000221      0.000000      0.000018
      6.11994      4.07996      2.03998         0.000224      0.000000     -0.000016
      2.03998      0.00000      6.11994         0.008082      0.000000     -0.009455
      6.11994      0.00000      6.11994         0.007847     -0.000000      0.009119
      2.03998      4.07996      6.11994         0.000221      0.000000     -0.000018
      6.11994      4.07996      6.11994         0.000224     -0.000000      0.000016
      0.00000      2.03998      2.03998        -0.001547     -0.000013     -0.000013
      4.07996      2.03998      2.03998         0.000546      0.000001      0.000001
      0.00000      6.11994      2.03998        -0.001547      0.000013     -0.000013
      4.07996      6.11994      2.03998         0.000546     -0.000001      0.000001
      0.00000      2.03998      6.11994        -0.001547     -0.000013      0.000013
      4.07996      2.03998      6.11994         0.000546      0.000001     -0.000001
      0.00000      6.11994      6.11994        -0.001547      0.000013      0.000013
      4.07996      6.11994      6.11994         0.000546     -0.000001     -0.000001
    total drift:                               -0.000001      0.000000     -0.000000

 mean value of Nose-termostat <S>:     1.000 mean value of <T> :     0.000
 mean temperature <T/S>/<1/S>  :     0.000