 vasp.4.6.28 25Jul05 complex
 executed on             LinuxIFC date 2017.01.10  17:17:05

 INCAR:
 POTCAR:   PAW_PBE Ag 06Sep2000
 POTCAR:   PAW_PBE Ag 06Sep2000
   VRHFIN =Ag : s1 d10

   TITEL  = PAW_PBE Ag 06Sep2000
   POMASS =  107.868; ZVAL   =   11.000    mass and valenz
   ENMAX  =  249.846; ENMIN  =  187.385 eV
   QCUT   =   -4.285; QGAM   =    8.570    optimization parameters

   Description
     l     E      TYP  RCUT    TYP  RCUT
     2   .000     23  2.400
     2   .000     23  2.400
     0   .000     23  2.400
     0   .000     23  2.400
     1  -.200     23  2.400
     1  1.500     23  2.400
     3   .000      7   .000

 PAW_PBE Ag 06Sep2000                   :

 POSCAR: Ag
  positions in direct lattice

 ion  position               nearest neighbor table
   1  0.001  0.000  0.000-   9 3.05  11 3.05  17 3.05  21 3.05  25 3.06  27 3.06  29 3.06  31 3.06
                            10 3.07  18 3.07  12 3.07  22 3.07
   2  0.500  0.000  0.000-   9 3.06  10 3.06  11 3.06  12 3.06  17 3.06  18 3.06  21 3.06  22 3.06
                            26 3.06  28 3.06  30 3.06  32 3.06
   3  0.000  0.500  0.000-   9 3.06  10 3.06  11 3.06  12 3.06  19 3.06  20 3.06  23 3.06  24 3.06
                            25 3.06  27 3.06  29 3.06  31 3.06
   4  0.500  0.500  0.000-   9 3.06  10 3.06  11 3.06  12 3.06  19 3.06  20 3.06  23 3.06  24 3.06
                            26 3.06  28 3.06  30 3.06  32 3.06
   5  0.000  0.000  0.500-  13 3.06  14 3.06  15 3.06  16 3.06  17 3.06  18 3.06  21 3.06  22 3.06
                            25 3.06  27 3.06  29 3.06  31 3.06
   6  0.500  0.000  0.500-  13 3.06  14 3.06  15 3.06  16 3.06  17 3.06  18 3.06  21 3.06  22 3.06
                            26 3.06  28 3.06  30 3.06  32 3.06
   7  0.000  0.500  0.500-  13 3.06  14 3.06  15 3.06  16 3.06  19 3.06  20 3.06  23 3.06  24 3.06
                            25 3.06  27 3.06  29 3.06  31 3.06
   8  0.500  0.500  0.500-  13 3.06  14 3.06  15 3.06  16 3.06  19 3.06  20 3.06  23 3.06  24 3.06
                            26 3.06  28 3.06  30 3.06  32 3.06
   9  0.250  0.250  0.000-   1 3.05   2 3.06   3 3.06   4 3.06  17 3.06  19 3.06  21 3.06  23 3.06
                            25 3.06  26 3.06  29 3.06  30 3.06
  10  0.750  0.250  0.000-   2 3.06   3 3.06   4 3.06  18 3.06  20 3.06  22 3.06  24 3.06  25 3.06
                            26 3.06  29 3.06  30 3.06   1 3.07
  11  0.250  0.750  0.000-   1 3.05   2 3.06   3 3.06   4 3.06  17 3.06  19 3.06  21 3.06  23 3.06
                            27 3.06  28 3.06  31 3.06  32 3.06
  12  0.750  0.750  0.000-   2 3.06   3 3.06   4 3.06  18 3.06  20 3.06  22 3.06  24 3.06  27 3.06
                            28 3.06  31 3.06  32 3.06   1 3.07
  13  0.250  0.250  0.500-   5 3.06   6 3.06   7 3.06   8 3.06  17 3.06  19 3.06  21 3.06  23 3.06
                            25 3.06  26 3.06  29 3.06  30 3.06
  14  0.750  0.250  0.500-   5 3.06   6 3.06   7 3.06   8 3.06  18 3.06  20 3.06  22 3.06  24 3.06
                            25 3.06  26 3.06  29 3.06  30 3.06
  15  0.250  0.750  0.500-   5 3.06   6 3.06   7 3.06   8 3.06  17 3.06  19 3.06  21 3.06  23 3.06
                            27 3.06  28 3.06  31 3.06  32 3.06
  16  0.750  0.750  0.500-   5 3.06   6 3.06   7 3.06   8 3.06  18 3.06  20 3.06  22 3.06  24 3.06
                            27 3.06  28 3.06  31 3.06  32 3.06
  17  0.250  0.000  0.250-   1 3.05   2 3.06   5 3.06   6 3.06   9 3.06  11 3.06  13 3.06  15 3.06
                            25 3.06  26 3.06  27 3.06  28 3.06
  18  0.750  0.000  0.250-   2 3.06   5 3.06   6 3.06  10 3.06  12 3.06  14 3.06  16 3.06  25 3.06
                            26 3.06  27 3.06  28 3.06   1 3.07
  19  0.250  0.500  0.250-   3 3.06   4 3.06   7 3.06   8 3.06   9 3.06  11 3.06  13 3.06  15 3.06
                            25 3.06  26 3.06  27 3.06  28 3.06
  20  0.750  0.500  0.250-   3 3.06   4 3.06   7 3.06   8 3.06  10 3.06  12 3.06  14 3.06  16 3.06
                            25 3.06  26 3.06  27 3.06  28 3.06
  21  0.250  0.000  0.750-   1 3.05   2 3.06   5 3.06   6 3.06   9 3.06  11 3.06  13 3.06  15 3.06
                            29 3.06  30 3.06  31 3.06  32 3.06
  22  0.750  0.000  0.750-   2 3.06   5 3.06   6 3.06  10 3.06  12 3.06  14 3.06  16 3.06  29 3.06
                            30 3.06  31 3.06  32 3.06   1 3.07
  23  0.250  0.500  0.750-   3 3.06   4 3.06   7 3.06   8 3.06   9 3.06  11 3.06  13 3.06  15 3.06
                            29 3.06  30 3.06  31 3.06  32 3.06
  24  0.750  0.500  0.750-   3 3.06   4 3.06   7 3.06   8 3.06  10 3.06  12 3.06  14 3.06  16 3.06
                            29 3.06  30 3.06  31 3.06  32 3.06
  25  0.000  0.250  0.250-   3 3.06   5 3.06   7 3.06   9 3.06  10 3.06  13 3.06  14 3.06  17 3.06
                            18 3.06  19 3.06  20 3.06   1 3.06
  26  0.500  0.250  0.250-   2 3.06   4 3.06   6 3.06   8 3.06   9 3.06  10 3.06  13 3.06  14 3.06
                            17 3.06  18 3.06  19 3.06  20 3.06
  27  0.000  0.750  0.250-   3 3.06   5 3.06   7 3.06  11 3.06  12 3.06  15 3.06  16 3.06  17 3.06
                            18 3.06  19 3.06  20 3.06   1 3.06
  28  0.500  0.750  0.250-   2 3.06   4 3.06   6 3.06   8 3.06  11 3.06  12 3.06  15 3.06  16 3.06
                            17 3.06  18 3.06  19 3.06  20 3.06
  29  0.000  0.250  0.750-   3 3.06   5 3.06   7 3.06   9 3.06  10 3.06  13 3.06  14 3.06  21 3.06
                            22 3.06  23 3.06  24 3.06   1 3.06
  30  0.500  0.250  0.750-   2 3.06   4 3.06   6 3.06   8 3.06   9 3.06  10 3.06  13 3.06  14 3.06
                            21 3.06  22 3.06  23 3.06  24 3.06
  31  0.000  0.750  0.750-   3 3.06   5 3.06   7 3.06  11 3.06  12 3.06  15 3.06  16 3.06  21 3.06
                            22 3.06  23 3.06  24 3.06   1 3.06
  32  0.500  0.750  0.750-   2 3.06   4 3.06   6 3.06   8 3.06  11 3.06  12 3.06  15 3.06  16 3.06
                            21 3.06  22 3.06  23 3.06  24 3.06

  LATTYP: Found a simple cubic cell.
 ALAT       =     8.6595075458

  Lattice vectors:

 A1 = (   8.6595075458,   0.0000000000,   0.0000000000)
 A2 = (   0.0000000000,   8.6595075458,   0.0000000000)
 A3 = (   0.0000000000,   0.0000000000,   8.6595075458)
 Subroutine PRICEL returns:
 Original cell was already a primitive cell.

Analysis of symmetry for initial positions (statically):

 Routine SETGRP: Setting up the symmetry group for a
 simple cubic supercell.

 Subroutine GETGRP returns: Found  8 space group operations
 (whereof  8 operations were pure point group operations)
 out of a pool of 48 trial point group operations.

The static configuration has the point symmetry C_4v.

Analysis of symmetry for dynamics (positions and initial velocities):

 Subroutine DYNSYM returns: Found  8 space group operations
 (whereof  8 operations were pure point group operations)
 out of a pool of  8 trial space group operations
 (whereof  8 operations were pure point group operations)
 and found also     1 'primitive' translations

The dynamic configuration has the point symmetry C_4v.

 KPOINTS: Automatic mesh

Automatic generation of k-mesh.

 Subroutine IBZKPT returns following result:

 Found    196 irreducible k-points:

 Following reciprocal coordinates:
            Coordinates               Weight
  0.000000  0.000000  0.000000      1.000000
  0.083333  0.000000  0.000000      2.000000
  0.166667  0.000000  0.000000      2.000000
  0.250000  0.000000  0.000000      2.000000
  0.333333  0.000000  0.000000      2.000000
  0.416667  0.000000  0.000000      2.000000
  0.500000  0.000000  0.000000      1.000000
  0.000000  0.083333  0.000000      4.000000
  0.083333  0.083333  0.000000      8.000000
  0.166667  0.083333  0.000000      8.000000
  0.250000  0.083333  0.000000      8.000000
  0.333333  0.083333  0.000000      8.000000
  0.416667  0.083333  0.000000      8.000000
  0.500000  0.083333  0.000000      4.000000
  0.000000  0.166667  0.000000      4.000000
  0.083333  0.166667  0.000000      8.000000
  0.166667  0.166667  0.000000      8.000000
  0.250000  0.166667  0.000000      8.000000
  0.333333  0.166667  0.000000      8.000000
  0.416667  0.166667  0.000000      8.000000
  0.500000  0.166667  0.000000      4.000000
  0.000000  0.250000  0.000000      4.000000
  0.083333  0.250000  0.000000      8.000000
  0.166667  0.250000  0.000000      8.000000
  0.250000  0.250000  0.000000      8.000000
  0.333333  0.250000  0.000000      8.000000
  0.416667  0.250000  0.000000      8.000000
  0.500000  0.250000  0.000000      4.000000
  0.000000  0.333333  0.000000      4.000000
  0.083333  0.333333  0.000000      8.000000
  0.166667  0.333333  0.000000      8.000000
  0.250000  0.333333  0.000000      8.000000
  0.333333  0.333333  0.000000      8.000000
  0.416667  0.333333  0.000000      8.000000
  0.500000  0.333333  0.000000      4.000000
  0.000000  0.416667  0.000000      4.000000
  0.083333  0.416667  0.000000      8.000000
  0.166667  0.416667  0.000000      8.000000
  0.250000  0.416667  0.000000      8.000000
  0.333333  0.416667  0.000000      8.000000
  0.416667  0.416667  0.000000      8.000000
  0.500000  0.416667  0.000000      4.000000
  0.000000  0.500000  0.000000      2.000000
  0.083333  0.500000  0.000000      4.000000
  0.166667  0.500000  0.000000      4.000000
  0.250000  0.500000  0.000000      4.000000
  0.333333  0.500000  0.000000      4.000000
  0.416667  0.500000  0.000000      4.000000
  0.500000  0.500000  0.000000      2.000000
  0.000000  0.083333  0.083333      4.000000
  0.083333  0.083333  0.083333      8.000000
  0.166667  0.083333  0.083333      8.000000
  0.250000  0.083333  0.083333      8.000000
  0.333333  0.083333  0.083333      8.000000
  0.416667  0.083333  0.083333      8.000000
  0.500000  0.083333  0.083333      4.000000
  0.000000  0.166667  0.083333      8.000000
  0.083333  0.166667  0.083333     16.000000
  0.166667  0.166667  0.083333     16.000000
  0.250000  0.166667  0.083333     16.000000
[...]
  0.500000  0.416667  0.416667      4.000000
  0.000000  0.500000  0.416667      4.000000
  0.083333  0.500000  0.416667      8.000000
  0.166667  0.500000  0.416667      8.000000
  0.250000  0.500000  0.416667      8.000000
  0.333333  0.500000  0.416667      8.000000
  0.416667  0.500000  0.416667      8.000000
  0.500000  0.500000  0.416667      4.000000
  0.000000  0.500000  0.500000      1.000000
  0.083333  0.500000  0.500000      2.000000
  0.166667  0.500000  0.500000      2.000000
  0.250000  0.500000  0.500000      2.000000
  0.333333  0.500000  0.500000      2.000000
  0.416667  0.500000  0.500000      2.000000
  0.500000  0.500000  0.500000      1.000000

 Following cartesian coordinates:
            Coordinates               Weight
  0.000000  0.000000  0.000000      1.000000
  0.009623  0.000000  0.000000      2.000000
  0.019247  0.000000  0.000000      2.000000
  0.028870  0.000000  0.000000      2.000000
  0.038493  0.000000  0.000000      2.000000
  0.048117  0.000000  0.000000      2.000000
  0.057740  0.000000  0.000000      1.000000
  0.000000  0.009623  0.000000      4.000000
  0.009623  0.009623  0.000000      8.000000
  0.019247  0.009623  0.000000      8.000000
[...]
 number of electron  352.0000006 magnetization
 augmentation part   169.5561282 magnetization

[...]

 eigenvalue-minimisations  : 45020
 total energy-change (2. order) :-0.2164597E-07  (-0.1108489E-10)
 number of electron  352.0000006 magnetization
 augmentation part   169.5561371 magnetization

 Broyden mixing:
  rms(total) = 0.34441E-05    rms(broyden)= 0.34377E-05
  rms(prec ) = 0.42989E-05
  weight for this iteration     100.00

 eigenvalues of (default mixing * dielectric matrix)
  average eigenvalue GAMMA=   1.5785
  2.9929  2.6077  2.4615  2.1656  1.2195  0.9945  0.9945  0.8092  0.7697  0.7697

[...]

----------------------------------------- Iteration    1(  16)  ---------------------------------------

 eigenvalue-minimisations  : 44640
 total energy-change (2. order) :-0.2946763E-08  ( 0.5530065E-11)
 number of electron  352.0000006 magnetization
 augmentation part   169.5561371 magnetization

 Free energy of the ion-electron system (eV)
  alpha Z        PSCENC =      2800.32745220
  Ewald energy   TEWEN  =    -29520.53997516
  -1/2 Hartree   DENC   =     -7009.03105732
  -V(xc)+E(xc)   XCENC  =      -369.18812510
  PAW double counting   =     27557.27064349   -26122.47111422
  entropy T*S    EENTRO =        -0.00047943
  eigenvalues    EBANDS =      -622.14970633
  atomic energy  EATOM  =     33197.19690173
  free energy    TOTEN  =       -88.58546014 eV

  energy without entropy =      -88.58498071  energy(sigma->0) =      -88.58522043

 average (electrostatic) potential at core
  the test charge radii are     1.1249
  (the norm of the test charge is              1.0000)
       1 -42.2937       2 -42.2937       3 -42.2937       4 -42.2937       5 -42.2937
       6 -42.2937       7 -42.2937       8 -42.2937       9 -42.2946      10 -42.2928
      11 -42.2946      12 -42.2928      13 -42.2937      14 -42.2936      15 -42.2937
      16 -42.2936      17 -42.2946      18 -42.2928      19 -42.2937      20 -42.2936
      21 -42.2946      22 -42.2928      23 -42.2937      24 -42.2936      25 -42.2937
      26 -42.2937      27 -42.2937      28 -42.2937      29 -42.2937      30 -42.2937
      31 -42.2937      32 -42.2937

 E-fermi :   2.1564     XC(G=0): -11.2024     alpha+bet : -7.1756
   add alpha+bet to get absolut eigen values

 k-point   1 :       0.0000    0.0000    0.0000
  band No.  band energies     occupation
      1      -4.4662      2.00000
      2      -3.3495      2.00000
      3      -3.3494      2.00000
      4      -3.3494      2.00000
      5      -3.3350      2.00000
      6      -3.3350      2.00000
      7      -3.3350      2.00000
      8      -3.3350      2.00000
      9      -3.2680      2.00000
     10      -3.2680      2.00000
     11      -3.2680      2.00000
     12      -2.9547      2.00000
     13      -2.9532      2.00000
     14      -2.9532      2.00000
     15      -2.9532      2.00000
     16      -2.9532      2.00000
     17      -2.9518      2.00000
     18      -2.7764      2.00000
     19      -2.7751      2.00000
     20      -2.7751      2.00000
     21      -2.7751      2.00000
     22      -2.7751      2.00000
     23      -2.7738      2.00000
     24      -2.7427      2.00000
     25      -2.7414      2.00000
     26      -2.7414      2.00000
     27      -2.7414      2.00000
     28      -2.7414      2.00000
     29      -2.7402      2.00000
     30      -2.5408      2.00000
     31      -2.5408      2.00000
     32      -2.5405      2.00000
     33      -2.5400      2.00000
     34      -2.5397      2.00000
     35      -2.5397      2.00000
     36      -2.5397      2.00000
     37      -2.5397      2.00000
     38      -2.5394      2.00000
     39      -2.5388      2.00000
     40      -2.5386      2.00000
     41      -2.5386      2.00000
     42      -2.3827      2.00000
     43      -2.3811      2.00000
     44      -2.3811      2.00000
     45      -2.3804      2.00000
     46      -2.3804      2.00000
     47      -2.3804      2.00000
     48      -2.3804      2.00000
     49      -2.3804      2.00000
     50      -2.3803      2.00000
     51      -2.3797      2.00000
     52      -2.3797      2.00000
     53      -2.3782      2.00000
     54      -2.3347      2.00000
     55      -2.3347      2.00000
     56      -2.3333      2.00000
     57      -2.3333      2.00000
     58      -2.3333      2.00000
     59      -2.3333      2.00000
     60      -2.3333      2.00000
[...]
    198       7.4646      0.00000
    199       7.4649      0.00000
    200       7.4649      0.00000
    201       7.4673      0.00000
    202       7.4673      0.00000
    203       7.6217      0.00000
    204       7.6217      0.00000
    205       7.6217      0.00000
    206       8.0213      0.00000
    207       8.0213      0.00000
    208       8.0214      0.00000
    209       8.0214      0.00000
    210       8.0214      0.00000
    211       8.0214      0.00000
    212       9.4020      0.00000

[...]

 k-point 196 :       0.5000    0.5000    0.5000
  band No.  band energies     occupation
      1      -3.2989      2.00000
      2      -3.2976      2.00000
      3      -3.2975      2.00000
      4      -3.2975      2.00000
      5      -3.2968      2.00000
      6      -3.2968      2.00000
      7      -3.2967      2.00000
      8      -3.2955      2.00000
      9      -2.9771      2.00000
     10      -2.9767      2.00000
     11      -2.9767      2.00000
     12      -2.9765      2.00000
     13      -2.9758      2.00000
     14      -2.9754      2.00000
     15      -2.9753      2.00000
     16      -2.9753      2.00000
     17      -2.9753      2.00000
     18      -2.9752      2.00000
     19      -2.9752      2.00000
     20      -2.9752      2.00000
     21      -2.9751      2.00000
     22      -2.9751      2.00000
     23      -2.9751      2.00000
     24      -2.9750      2.00000
     25      -2.9750      2.00000
     26      -2.9750      2.00000
     27      -2.9749      2.00000
     28      -2.9745      2.00000
     29      -2.9738      2.00000
     30      -2.9736      2.00000
     31      -2.9736      2.00000
     32      -2.9732      2.00000
     33      -2.5382      2.00000
     34      -2.5356      2.00000
     35      -2.5355      2.00000
     36      -2.5354      2.00000
     37      -2.5354      2.00000
     38      -2.5350      2.00000
     39      -2.5348      2.00000
     40      -2.5348      2.00000
     41      -2.5347      2.00000
     42      -2.5346      2.00000
     43      -2.5346      2.00000
     44      -2.5346      2.00000
     45      -2.5346      2.00000
     46      -2.5346      2.00000
     47      -2.5346      2.00000
     48      -2.5346      2.00000
     49      -2.5344      2.00000
     50      -2.5344      2.00000
     51      -2.5342      2.00000
     52      -2.5338      2.00000
     53      -2.5338      2.00000
     54      -2.5337      2.00000
     55      -2.5336      2.00000
     56      -2.5311      2.00000
     57      -2.0158      2.00000
     58      -2.0158      2.00000
     59      -2.0156      2.00000
     60      -2.0154      2.00000
[...]
    198       7.4718      0.00000
    199       7.4718      0.00000
    200       7.4720      0.00000
    201       7.4720      0.00000
    202       7.4721      0.00000
    203       7.4721      0.00000
    204       7.4721      0.00000
    205       7.4722      0.00000
    206       7.4722      0.00000
    207       7.4724      0.00000
    208       7.4726      0.00000
    209       7.4728      0.00000
    210       7.4733      0.00000
    211       7.4739      0.00000
    212       7.4748      0.00000

 soft charge-density along one line, spin component           1
         0         1         2         3         4         5         6         7         8         9
 total charge-density along one line

------------------------ aborting loop because EDIFF is reached ----------------------------------------

  FREE ENERGIE OF THE ION-ELECTRON SYSTEM (eV)
  free  energy   TOTEN  =       -88.585460 eV

  energy  without entropy=      -88.584981  energy(sigma->0) =      -88.585220

  FORCE on cell =-STRESS in cart. coord.  units (eV/reduce length):
  Direction    X        Y        Z        XY       YZ       ZX
  Alpha Z   2800.33   2800.33   2800.33
  Ewald    -9840.24  -9840.21  -9840.21      0.00     -0.00     -0.00
  Hartree   2336.33   2336.35   2336.35     -0.00     -0.00     -0.00
  E(xc)    -1853.00  -1853.00  -1853.00      0.00     -0.00     -0.00
  Local     3001.73   3001.67   3001.67     -0.00      0.00     -0.00
  n-local  -2158.30  -2161.79  -2154.81      1.42      0.75      0.09
  augment   1336.72   1336.72   1336.72     -0.00     -0.00     -0.00
  Kinetic   4346.42   4340.62   4352.23      0.69     -0.65     -1.99
  Total      -30.02    -30.02    -30.02      0.00      0.00      0.00
  in kB      -74.06    -74.06    -74.06      0.00      0.00      0.00

 VOLUME and BASIS-vectors are now :
  energy-cutoff  :      750.00
  volume of cell :      649.35
      direct lattice vectors                 reciprocal lattice vectors
     8.659507546  0.000000000  0.000000000     0.115480008  0.000000000  0.000000000
     0.000000000  8.659507546  0.000000000     0.000000000  0.115480008  0.000000000
     0.000000000  0.000000000  8.659507546     0.000000000  0.000000000  0.115480008

  length of vectors
     8.659507546  8.659507546  8.659507546     0.115480008  0.115480008  0.115480008

 FORCES acting on ions
    electron-ion (+dipol)            ewald-force                    non-local-force                 convergence-correction
   0.350E+01 0.437E-13 0.736E-07   -.348E+01 0.107E-12 -.355E-13   -.333E-01 -.634E-20 -.531E-20   -.255E-04 0.844E-13 -.132E-12
   -.911E+00 0.217E-12 -.740E-07   0.920E+00 0.142E-13 0.426E-13   -.736E-02 -.722E-22 -.844E-21   0.145E-05 0.675E-13 -.214E-12
   0.290E+00 -.861E-13 -.915E-11   -.291E+00 -.711E-14 0.391E-13   0.839E-03 0.591E-21 -.153E-20   -.176E-05 -.270E-12 -.770E-13
   -.232E+00 0.847E-12 -.892E-11   0.229E+00 0.142E-13 -.142E-13   0.306E-02 -.111E-19 -.311E-21   0.598E-06 -.231E-12 -.107E-12
   0.290E+00 0.435E-13 0.454E-11   -.291E+00 0.107E-13 -.107E-13   0.839E-03 -.793E-21 -.777E-21   -.133E-05 0.799E-13 -.344E-13
   -.232E+00 0.480E-14 0.580E-11   0.229E+00 0.142E-13 -.142E-13   0.306E-02 -.513E-20 0.308E-20   0.516E-06 0.633E-13 0.316E-13
   0.122E+00 -.864E-13 0.347E-10   -.120E+00 -.711E-14 0.320E-13   -.139E-02 0.595E-20 0.406E-20   0.152E-05 -.268E-12 -.918E-13
   -.112E+00 -.671E-11 0.366E-10   0.112E+00 0.142E-13 0.284E-13   -.388E-03 -.523E-21 -.115E-20   -.533E-06 -.226E-12 -.710E-13
   -.445E+00 -.850E+00 -.599E-11   0.442E+00 0.849E+00 0.355E-13   0.523E-02 0.426E-02 -.722E-20   0.551E-05 0.593E-05 -.167E-12
   -.447E+00 0.844E+00 -.146E-10   0.445E+00 -.842E+00 -.213E-13   0.523E-02 -.423E-02 -.625E-20   0.569E-05 -.629E-05 -.124E-12
   -.445E+00 0.850E+00 -.622E-11   0.442E+00 -.849E+00 0.284E-13   0.523E-02 -.426E-02 -.634E-20   0.551E-05 -.593E-05 -.120E-12
   -.447E+00 -.844E+00 0.132E-11   0.445E+00 0.842E+00 0.284E-13   0.523E-02 0.423E-02 -.159E-20   0.569E-05 0.629E-05 -.101E-12
   -.125E-01 -.700E-01 -.842E-10   0.135E-01 0.698E-01 -.355E-13   -.820E-03 0.211E-03 0.168E-20   -.873E-07 0.883E-06 -.824E-15
   -.138E-01 0.699E-01 -.837E-10   0.148E-01 -.697E-01 0.213E-13   -.816E-03 -.216E-03 0.382E-21   -.580E-06 -.117E-05 -.342E-13
   -.125E-01 0.700E-01 -.839E-10   0.135E-01 -.698E-01 -.284E-13   -.820E-03 -.211E-03 -.278E-21   -.873E-07 -.883E-06 -.512E-13
   -.138E-01 -.699E-01 -.994E-10   0.148E-01 0.697E-01 0.284E-13   -.816E-03 0.216E-03 -.120E-20   -.580E-06 0.117E-05 -.726E-13
   -.445E+00 0.142E-13 -.850E+00   0.442E+00 0.355E-14 0.849E+00   0.523E-02 0.164E-20 0.426E-02   0.543E-05 0.439E-13 0.599E-05
   -.447E+00 0.299E-13 0.844E+00   0.445E+00 -.249E-13 -.842E+00   0.523E-02 0.285E-20 -.423E-02   0.561E-05 0.684E-13 -.636E-05
   -.125E-01 0.809E-12 -.700E-01   0.135E-01 -.284E-13 0.698E-01   -.820E-03 0.271E-21 0.211E-03   -.667E-07 -.217E-12 0.949E-06
   -.138E-01 0.929E-11 0.699E-01   0.148E-01 -.284E-13 -.697E-01   -.816E-03 0.551E-21 -.216E-03   -.559E-06 -.227E-12 -.124E-05
   -.445E+00 0.872E-13 0.850E+00   0.442E+00 0.284E-13 -.849E+00   0.523E-02 -.206E-21 -.426E-02   0.543E-05 0.934E-13 -.599E-05
   -.447E+00 0.546E-13 -.844E+00   0.445E+00 -.284E-13 0.842E+00   0.523E-02 0.176E-20 0.423E-02   0.561E-05 0.982E-13 0.636E-05
   -.125E-01 0.119E-11 0.700E-01   0.135E-01 0.000E+00 -.698E-01   -.820E-03 -.183E-20 -.211E-03   -.667E-07 -.265E-12 -.949E-06
   -.138E-01 -.714E-11 -.699E-01   0.148E-01 -.284E-13 0.697E-01   -.816E-03 -.282E-21 0.216E-03   -.559E-06 -.259E-12 0.124E-05
   0.548E+00 0.200E-02 0.200E-02   -.549E+00 -.199E-02 -.199E-02   0.868E-03 -.117E-04 -.117E-04   -.374E-05 -.410E-06 -.411E-06
   -.307E+00 -.585E-03 -.585E-03   0.309E+00 0.597E-03 0.597E-03   -.102E-02 -.106E-04 -.106E-04   -.388E-06 -.549E-07 -.547E-07
   0.548E+00 -.200E-02 0.200E-02   -.549E+00 0.199E-02 -.199E-02   0.868E-03 0.117E-04 -.117E-04   -.374E-05 0.410E-06 -.411E-06
   -.307E+00 0.585E-03 -.585E-03   0.309E+00 -.597E-03 0.597E-03   -.102E-02 0.106E-04 -.106E-04   -.388E-06 0.549E-07 -.547E-07
   0.548E+00 0.200E-02 -.200E-02   -.549E+00 -.199E-02 0.199E-02   0.868E-03 -.117E-04 0.117E-04   -.374E-05 -.410E-06 0.411E-06
   -.307E+00 -.585E-03 0.585E-03   0.309E+00 0.597E-03 -.597E-03   -.102E-02 -.106E-04 0.106E-04   -.388E-06 -.549E-07 0.547E-07
   0.548E+00 -.200E-02 -.200E-02   -.549E+00 0.199E-02 0.199E-02   0.868E-03 0.117E-04 0.117E-04   -.374E-05 0.410E-06 0.411E-06
   -.307E+00 0.585E-03 0.585E-03   0.309E+00 -.597E-03 -.597E-03   -.102E-02 0.106E-04 0.106E-04   -.388E-06 0.549E-07 0.547E-07
   -.665E-06 0.938E-12 -.378E-09   0.182E-13 0.182E-14 -.760E-13   0.812E-05 0.911E-18 -.796E-19   0.363E-06 -.775E-12 -.640E-12

 POSITION                                       TOTAL-FORCE (eV/Angst)
      0.01000      0.00000      0.00000        -0.022141     -0.000000      0.000000
      4.32975      0.00000      0.00000         0.001008     -0.000000     -0.000000
      0.00000      4.32975      0.00000        -0.000272      0.000000      0.000000
      4.32975      4.32975      0.00000        -0.000452      0.000000      0.000000
      0.00000      0.00000      4.32975        -0.000272     -0.000000      0.000000
      4.32975      0.00000      4.32975        -0.000452      0.000000      0.000000
      0.00000      4.32975      4.32975         0.000043      0.000000      0.000000
      4.32975      4.32975      4.32975        -0.000080      0.000000     -0.000000
      2.16488      2.16488      0.00000         0.002621      0.003080     -0.000000
      6.49463      2.16488      0.00000         0.002507     -0.002934      0.000000
      2.16488      6.49463      0.00000         0.002621     -0.003080     -0.000000
      6.49463      6.49463      0.00000         0.002507      0.002934      0.000000
      2.16488      2.16488      4.32975         0.000203      0.000049     -0.000000
      6.49463      2.16488      4.32975         0.000202     -0.000048     -0.000000
      2.16488      6.49463      4.32975         0.000203     -0.000049     -0.000000
      6.49463      6.49463      4.32975         0.000202      0.000048      0.000000
      2.16488      0.00000      2.16488         0.002621     -0.000000      0.003080
      6.49463      0.00000      2.16488         0.002507      0.000000     -0.002934
      2.16488      4.32975      2.16488         0.000203     -0.000000      0.000049
      6.49463      4.32975      2.16488         0.000202     -0.000000     -0.000048
      2.16488      0.00000      6.49463         0.002621      0.000000     -0.003080
      6.49463      0.00000      6.49463         0.002507      0.000000      0.002934
      2.16488      4.32975      6.49463         0.000203     -0.000000     -0.000049
      6.49463      4.32975      6.49463         0.000202     -0.000000      0.000048
      0.00000      2.16488      2.16488        -0.000443     -0.000002     -0.000002
      4.32975      2.16488      2.16488         0.000565      0.000002      0.000002
      0.00000      6.49463      2.16488        -0.000443      0.000002     -0.000002
      4.32975      6.49463      2.16488         0.000565     -0.000002      0.000002
      0.00000      2.16488      6.49463        -0.000443     -0.000002      0.000002
      4.32975      2.16488      6.49463         0.000565      0.000002     -0.000002
      0.00000      6.49463      6.49463        -0.000443      0.000002      0.000002
      4.32975      6.49463      6.49463         0.000565     -0.000002     -0.000002
    total drift:                                0.000008      0.000000     -0.000000

 mean value of Nose-termostat <S>:     1.000 mean value of <T> :     0.000
 mean temperature <T/S>/<1/S>  :     0.000