 vasp.4.6.28 25Jul05 complex
 executed on             LinuxIFC date 2017.01.10  08:54:07

 INCAR:
 POTCAR:   PAW_PBE Au 06Sep2000
 POTCAR:   PAW_PBE Au 06Sep2000
   VRHFIN =Au: s1d10

   TITEL  = PAW_PBE Au 06Sep2000
   POMASS =  196.966; ZVAL   =   11.000    mass and valenz
   ENMAX  =  229.948; ENMIN  =  172.461 eV
   QCUT   =   -4.111; QGAM   =    8.222    optimization parameters

   Description
     l     E      TYP  RCUT    TYP  RCUT
     2   .000     23  2.500
     2   .000     23  2.500
     0   .000     23  2.500
     0   .000     23  2.500
     1  -.200     23  2.500
     1   .000     23  2.500
     3   .000      7   .000

 PAW_PBE Au 06Sep2000                   :

 POSCAR: Au
  positions in direct lattice

 ion  position               nearest neighbor table
   1  0.001  0.000  0.000-   9 2.83  11 2.83  17 2.83  21 2.83  25 2.83  27 2.83  29 2.83  31 2.83
                            10 2.84  18 2.84  12 2.84  22 2.84
   2  0.500  0.000  0.000-   9 2.83  10 2.83  11 2.83  12 2.83  17 2.83  18 2.83  21 2.83  22 2.83
                            26 2.83  28 2.83  30 2.83  32 2.83
   3  0.000  0.500  0.000-   9 2.83  10 2.83  11 2.83  12 2.83  19 2.83  20 2.83  23 2.83  24 2.83
                            25 2.83  27 2.83  29 2.83  31 2.83
   4  0.500  0.500  0.000-   9 2.83  10 2.83  11 2.83  12 2.83  19 2.83  20 2.83  23 2.83  24 2.83
                            26 2.83  28 2.83  30 2.83  32 2.83
   5  0.000  0.000  0.500-  13 2.83  14 2.83  15 2.83  16 2.83  17 2.83  18 2.83  21 2.83  22 2.83
                            25 2.83  27 2.83  29 2.83  31 2.83
   6  0.500  0.000  0.500-  13 2.83  14 2.83  15 2.83  16 2.83  17 2.83  18 2.83  21 2.83  22 2.83
                            26 2.83  28 2.83  30 2.83  32 2.83
   7  0.000  0.500  0.500-  13 2.83  14 2.83  15 2.83  16 2.83  19 2.83  20 2.83  23 2.83  24 2.83
                            25 2.83  27 2.83  29 2.83  31 2.83
   8  0.500  0.500  0.500-  13 2.83  14 2.83  15 2.83  16 2.83  19 2.83  20 2.83  23 2.83  24 2.83
                            26 2.83  28 2.83  30 2.83  32 2.83
   9  0.250  0.250  0.000-   1 2.83   2 2.83   3 2.83   4 2.83  17 2.83  19 2.83  21 2.83  23 2.83
                            25 2.83  26 2.83  29 2.83  30 2.83
  10  0.750  0.250  0.000-   2 2.83   3 2.83   4 2.83  18 2.83  20 2.83  22 2.83  24 2.83  25 2.83
                            26 2.83  29 2.83  30 2.83   1 2.84
  11  0.250  0.750  0.000-   1 2.83   2 2.83   3 2.83   4 2.83  17 2.83  19 2.83  21 2.83  23 2.83
                            27 2.83  28 2.83  31 2.83  32 2.83
  12  0.750  0.750  0.000-   2 2.83   3 2.83   4 2.83  18 2.83  20 2.83  22 2.83  24 2.83  27 2.83
                            28 2.83  31 2.83  32 2.83   1 2.84
  13  0.250  0.250  0.500-   5 2.83   6 2.83   7 2.83   8 2.83  17 2.83  19 2.83  21 2.83  23 2.83
                            25 2.83  26 2.83  29 2.83  30 2.83
  14  0.750  0.250  0.500-   5 2.83   6 2.83   7 2.83   8 2.83  18 2.83  20 2.83  22 2.83  24 2.83
                            25 2.83  26 2.83  29 2.83  30 2.83
  15  0.250  0.750  0.500-   5 2.83   6 2.83   7 2.83   8 2.83  17 2.83  19 2.83  21 2.83  23 2.83
                            27 2.83  28 2.83  31 2.83  32 2.83
  16  0.750  0.750  0.500-   5 2.83   6 2.83   7 2.83   8 2.83  18 2.83  20 2.83  22 2.83  24 2.83
                            27 2.83  28 2.83  31 2.83  32 2.83
  17  0.250  0.000  0.250-   1 2.83   2 2.83   5 2.83   6 2.83   9 2.83  11 2.83  13 2.83  15 2.83
                            25 2.83  26 2.83  27 2.83  28 2.83
  18  0.750  0.000  0.250-   2 2.83   5 2.83   6 2.83  10 2.83  12 2.83  14 2.83  16 2.83  25 2.83
                            26 2.83  27 2.83  28 2.83   1 2.84
  19  0.250  0.500  0.250-   3 2.83   4 2.83   7 2.83   8 2.83   9 2.83  11 2.83  13 2.83  15 2.83
                            25 2.83  26 2.83  27 2.83  28 2.83
  20  0.750  0.500  0.250-   3 2.83   4 2.83   7 2.83   8 2.83  10 2.83  12 2.83  14 2.83  16 2.83
                            25 2.83  26 2.83  27 2.83  28 2.83
  21  0.250  0.000  0.750-   1 2.83   2 2.83   5 2.83   6 2.83   9 2.83  11 2.83  13 2.83  15 2.83
                            29 2.83  30 2.83  31 2.83  32 2.83
  22  0.750  0.000  0.750-   2 2.83   5 2.83   6 2.83  10 2.83  12 2.83  14 2.83  16 2.83  29 2.83
                            30 2.83  31 2.83  32 2.83   1 2.84
  23  0.250  0.500  0.750-   3 2.83   4 2.83   7 2.83   8 2.83   9 2.83  11 2.83  13 2.83  15 2.83
                            29 2.83  30 2.83  31 2.83  32 2.83
  24  0.750  0.500  0.750-   3 2.83   4 2.83   7 2.83   8 2.83  10 2.83  12 2.83  14 2.83  16 2.83
                            29 2.83  30 2.83  31 2.83  32 2.83
  25  0.000  0.250  0.250-   3 2.83   5 2.83   7 2.83   9 2.83  10 2.83  13 2.83  14 2.83  17 2.83
                            18 2.83  19 2.83  20 2.83   1 2.83
  26  0.500  0.250  0.250-   2 2.83   4 2.83   6 2.83   8 2.83   9 2.83  10 2.83  13 2.83  14 2.83
                            17 2.83  18 2.83  19 2.83  20 2.83
  27  0.000  0.750  0.250-   3 2.83   5 2.83   7 2.83  11 2.83  12 2.83  15 2.83  16 2.83  17 2.83
                            18 2.83  19 2.83  20 2.83   1 2.83
  28  0.500  0.750  0.250-   2 2.83   4 2.83   6 2.83   8 2.83  11 2.83  12 2.83  15 2.83  16 2.83
                            17 2.83  18 2.83  19 2.83  20 2.83
  29  0.000  0.250  0.750-   3 2.83   5 2.83   7 2.83   9 2.83  10 2.83  13 2.83  14 2.83  21 2.83
                            22 2.83  23 2.83  24 2.83   1 2.83
  30  0.500  0.250  0.750-   2 2.83   4 2.83   6 2.83   8 2.83   9 2.83  10 2.83  13 2.83  14 2.83
                            21 2.83  22 2.83  23 2.83  24 2.83
  31  0.000  0.750  0.750-   3 2.83   5 2.83   7 2.83  11 2.83  12 2.83  15 2.83  16 2.83  21 2.83
                            22 2.83  23 2.83  24 2.83   1 2.83
  32  0.500  0.750  0.750-   2 2.83   4 2.83   6 2.83   8 2.83  11 2.83  12 2.83  15 2.83  16 2.83
                            21 2.83  22 2.83  23 2.83  24 2.83

  LATTYP: Found a simple cubic cell.
 ALAT       =     8.0118756524

  Lattice vectors:

 A1 = (   8.0118756524,   0.0000000000,   0.0000000000)
 A2 = (   0.0000000000,   8.0118756524,   0.0000000000)
 A3 = (   0.0000000000,   0.0000000000,   8.0118756524)
 Subroutine PRICEL returns:
 Original cell was already a primitive cell.

Analysis of symmetry for initial positions (statically):

 Routine SETGRP: Setting up the symmetry group for a
 simple cubic supercell.

 Subroutine GETGRP returns: Found  8 space group operations
 (whereof  8 operations were pure point group operations)
 out of a pool of 48 trial point group operations.

The static configuration has the point symmetry C_4v.

Analysis of symmetry for dynamics (positions and initial velocities):

 Subroutine DYNSYM returns: Found  8 space group operations
 (whereof  8 operations were pure point group operations)
 out of a pool of  8 trial space group operations
 (whereof  8 operations were pure point group operations)
 and found also     1 'primitive' translations

The dynamic configuration has the point symmetry C_4v.

 KPOINTS: Automatic mesh

Automatic generation of k-mesh.

 Subroutine IBZKPT returns following result:

 Found    196 irreducible k-points:

 Following reciprocal coordinates:
            Coordinates               Weight
  0.000000  0.000000  0.000000      1.000000
  0.083333  0.000000  0.000000      2.000000
  0.166667  0.000000  0.000000      2.000000
  0.250000  0.000000  0.000000      2.000000
  0.333333  0.000000  0.000000      2.000000
  0.416667  0.000000  0.000000      2.000000
  0.500000  0.000000  0.000000      1.000000
  0.000000  0.083333  0.000000      4.000000
  0.083333  0.083333  0.000000      8.000000
  0.166667  0.083333  0.000000      8.000000
  0.250000  0.083333  0.000000      8.000000
  0.333333  0.083333  0.000000      8.000000
  0.416667  0.083333  0.000000      8.000000
  0.500000  0.083333  0.000000      4.000000
  0.000000  0.166667  0.000000      4.000000
  0.083333  0.166667  0.000000      8.000000
  0.166667  0.166667  0.000000      8.000000
  0.250000  0.166667  0.000000      8.000000
  0.333333  0.166667  0.000000      8.000000
  0.416667  0.166667  0.000000      8.000000
  0.500000  0.166667  0.000000      4.000000
  0.000000  0.250000  0.000000      4.000000
  0.083333  0.250000  0.000000      8.000000
  0.166667  0.250000  0.000000      8.000000
  0.250000  0.250000  0.000000      8.000000
  0.333333  0.250000  0.000000      8.000000
  0.416667  0.250000  0.000000      8.000000
  0.500000  0.250000  0.000000      4.000000
  0.000000  0.333333  0.000000      4.000000
  0.083333  0.333333  0.000000      8.000000
  0.166667  0.333333  0.000000      8.000000
  0.250000  0.333333  0.000000      8.000000
  0.333333  0.333333  0.000000      8.000000
  0.416667  0.333333  0.000000      8.000000
  0.500000  0.333333  0.000000      4.000000
  0.000000  0.416667  0.000000      4.000000
  0.083333  0.416667  0.000000      8.000000
  0.166667  0.416667  0.000000      8.000000
  0.250000  0.416667  0.000000      8.000000
  0.333333  0.416667  0.000000      8.000000
  0.416667  0.416667  0.000000      8.000000
  0.500000  0.416667  0.000000      4.000000
  0.000000  0.500000  0.000000      2.000000
  0.083333  0.500000  0.000000      4.000000
  0.166667  0.500000  0.000000      4.000000
  0.250000  0.500000  0.000000      4.000000
  0.333333  0.500000  0.000000      4.000000
  0.416667  0.500000  0.000000      4.000000
  0.500000  0.500000  0.000000      2.000000
  0.000000  0.083333  0.083333      4.000000
  0.083333  0.083333  0.083333      8.000000
  0.166667  0.083333  0.083333      8.000000
  0.250000  0.083333  0.083333      8.000000
  0.333333  0.083333  0.083333      8.000000
  0.416667  0.083333  0.083333      8.000000
  0.500000  0.083333  0.083333      4.000000
  0.000000  0.166667  0.083333      8.000000
  0.083333  0.166667  0.083333     16.000000
  0.166667  0.166667  0.083333     16.000000
  0.250000  0.166667  0.083333     16.000000
[...]
  0.500000  0.416667  0.416667      4.000000
  0.000000  0.500000  0.416667      4.000000
  0.083333  0.500000  0.416667      8.000000
  0.166667  0.500000  0.416667      8.000000
  0.250000  0.500000  0.416667      8.000000
  0.333333  0.500000  0.416667      8.000000
  0.416667  0.500000  0.416667      8.000000
  0.500000  0.500000  0.416667      4.000000
  0.000000  0.500000  0.500000      1.000000
  0.083333  0.500000  0.500000      2.000000
  0.166667  0.500000  0.500000      2.000000
  0.250000  0.500000  0.500000      2.000000
  0.333333  0.500000  0.500000      2.000000
  0.416667  0.500000  0.500000      2.000000
  0.500000  0.500000  0.500000      1.000000

 Following cartesian coordinates:
            Coordinates               Weight
  0.000000  0.000000  0.000000      1.000000
  0.010401  0.000000  0.000000      2.000000
  0.020802  0.000000  0.000000      2.000000
  0.031204  0.000000  0.000000      2.000000
  0.041605  0.000000  0.000000      2.000000
  0.052006  0.000000  0.000000      2.000000
  0.062407  0.000000  0.000000      1.000000
  0.000000  0.010401  0.000000      4.000000
  0.010401  0.010401  0.000000      8.000000
  0.020802  0.010401  0.000000      8.000000
[...]
 number of electron  352.0000007 magnetization
 augmentation part   128.6591071 magnetization

[...]

 eigenvalue-minimisations  : 45936
 total energy-change (2. order) :-0.1113949E-07  (-0.1915266E-10)
 number of electron  352.0000007 magnetization
 augmentation part   128.6590932 magnetization

 Broyden mixing:
  rms(total) = 0.18587E-05    rms(broyden)= 0.18538E-05
  rms(prec ) = 0.22539E-05
  weight for this iteration     100.00

 eigenvalues of (default mixing * dielectric matrix)
  average eigenvalue GAMMA=   1.5380
  2.7707  2.7707  2.4224  2.4224  1.2141  1.0506  1.0184  1.0184  0.8968  0.7572
  0.5762

[...]

----------------------------------------- Iteration    1(  17)  ---------------------------------------

 eigenvalue-minimisations  : 45920
 total energy-change (2. order) : 0.6653863E-08  ( 0.3348235E-11)
 number of electron  352.0000007 magnetization
 augmentation part   128.6590932 magnetization

 Free energy of the ion-electron system (eV)
  alpha Z        PSCENC =      3729.00947824
  Ewald energy   TEWEN  =    -31906.79990361
  -1/2 Hartree   DENC   =     -3380.96013012
  -V(xc)+E(xc)   XCENC  =       483.59824651
  PAW double counting   =     24527.40663830   -23878.34632031
  entropy T*S    EENTRO =        -0.00034735
  eigenvalues    EBANDS =       692.01686577
  atomic energy  EATOM  =     29633.78979189
  free energy    TOTEN  =      -100.28568069 eV

  energy without entropy =     -100.28533334  energy(sigma->0) =     -100.28550702

 average (electrostatic) potential at core
  the test charge radii are     1.2098
  (the norm of the test charge is              1.0000)
       1 -44.9935       2 -44.9934       3 -44.9934       4 -44.9934       5 -44.9934
       6 -44.9934       7 -44.9934       8 -44.9934       9 -44.9952      10 -44.9917
      11 -44.9952      12 -44.9917      13 -44.9935      14 -44.9933      15 -44.9935
      16 -44.9933      17 -44.9952      18 -44.9917      19 -44.9935      20 -44.9933
      21 -44.9952      22 -44.9917      23 -44.9935      24 -44.9933      25 -44.9934
      26 -44.9934      27 -44.9934      28 -44.9934      29 -44.9934      30 -44.9934
      31 -44.9934      32 -44.9934

 E-fermi :   6.5916     XC(G=0): -13.0739     alpha+bet :-10.7982
   add alpha+bet to get absolut eigen values

 k-point   1 :       0.0000    0.0000    0.0000
  band No.  band energies     occupation
      1      -3.9527      2.00000
      2      -1.4283      2.00000
      3      -1.4245      2.00000
      4      -1.4245      2.00000
      5      -1.4245      2.00000
      6      -1.4245      2.00000
      7      -1.4208      2.00000
      8      -1.3711      2.00000
      9      -1.3711      2.00000
     10      -1.3711      2.00000
     11      -1.3711      2.00000
     12      -1.1483      2.00000
     13      -1.1483      2.00000
     14      -1.1483      2.00000
     15      -0.8088      2.00000
     16      -0.8088      2.00000
     17      -0.8088      2.00000
     18      -0.0335      2.00000
     19      -0.0320      2.00000
     20      -0.0320      2.00000
     21      -0.0299      2.00000
     22      -0.0296      2.00000
     23      -0.0296      2.00000
     24      -0.0296      2.00000
     25      -0.0296      2.00000
     26      -0.0293      2.00000
     27      -0.0272      2.00000
     28      -0.0272      2.00000
     29      -0.0257      2.00000
     30       0.0402      2.00000
     31       0.0429      2.00000
     32       0.0429      2.00000
     33       0.0429      2.00000
     34       0.0430      2.00000
     35       0.0457      2.00000
     36       0.2180      2.00000
     37       0.2208      2.00000
     38       0.2208      2.00000
     39       0.2209      2.00000
     40       0.2209      2.00000
     41       0.2237      2.00000
     42       0.8615      2.00000
     43       0.8651      2.00000
     44       0.8651      2.00000
     45       0.8666      2.00000
     46       0.8667      2.00000
     47       0.8667      2.00000
     48       0.8667      2.00000
     49       0.8667      2.00000
     50       0.8667      2.00000
     51       0.8681      2.00000
     52       0.8681      2.00000
     53       0.8715      2.00000
     54       0.9384      2.00000
     55       0.9384      2.00000
     56       0.9412      2.00000
     57       0.9412      2.00000
     58       0.9413      2.00000
     59       0.9413      2.00000
     60       0.9413      2.00000
[...]
    198      12.8599      0.00000
    199      12.8599      0.00000
    200      13.0782      0.00000
    201      13.0782      0.00000
    202      13.0818      0.00000
    203      13.0818      0.00000
    204      13.0824      0.00000
    205      13.0824      0.00000
    206      13.0824      0.00000
    207      13.0826      0.00000
    208      13.0831      0.00000
    209      13.0831      0.00000
    210      13.0866      0.00000
    211      13.0866      0.00000
    212      15.5385      0.00000

[...]

 k-point 196 :       0.5000    0.5000    0.5000
  band No.  band energies     occupation
      1      -2.0802      2.00000
      2      -2.0764      2.00000
      3      -2.0764      2.00000
      4      -2.0757      2.00000
      5      -2.0753      2.00000
      6      -2.0747      2.00000
      7      -2.0747      2.00000
      8      -2.0709      2.00000
      9      -0.4677      2.00000
     10      -0.4676      2.00000
     11      -0.4675      2.00000
     12      -0.4675      2.00000
     13      -0.4665      2.00000
     14      -0.4656      2.00000
     15      -0.4646      2.00000
     16      -0.4646      2.00000
     17      -0.4646      2.00000
     18      -0.4645      2.00000
     19      -0.4645      2.00000
     20      -0.4643      2.00000
     21      -0.4642      2.00000
     22      -0.4641      2.00000
     23      -0.4641      2.00000
     24      -0.4640      2.00000
     25      -0.4640      2.00000
     26      -0.4639      2.00000
     27      -0.4630      2.00000
     28      -0.4621      2.00000
     29      -0.4611      2.00000
     30      -0.4611      2.00000
     31      -0.4610      2.00000
     32      -0.4609      2.00000
     33       0.5007      2.00000
     34       0.5051      2.00000
     35       0.5059      2.00000
     36       0.5060      2.00000
     37       0.5060      2.00000
     38       0.5069      2.00000
     39       0.5074      2.00000
     40       0.5074      2.00000
     41       0.5076      2.00000
     42       0.5077      2.00000
     43       0.5077      2.00000
     44       0.5078      2.00000
     45       0.5078      2.00000
     46       0.5079      2.00000
     47       0.5079      2.00000
     48       0.5079      2.00000
     49       0.5082      2.00000
     50       0.5082      2.00000
     51       0.5087      2.00000
     52       0.5095      2.00000
     53       0.5095      2.00000
     54       0.5097      2.00000
     55       0.5103      2.00000
     56       0.5148      2.00000
     57       1.3107      2.00000
     58       1.3131      2.00000
     59       1.3137      2.00000
     60       1.3137      2.00000
[...]
    198      12.2497      0.00000
    199      12.2499      0.00000
    200      12.2503      0.00000
    201      12.2505      0.00000
    202      12.2505      0.00000
    203      12.2505      0.00000
    204      12.2506      0.00000
    205      12.2507      0.00000
    206      12.2509      0.00000
    207      12.2510      0.00000
    208      12.2515      0.00000
    209      12.2517      0.00000
    210      12.2521      0.00000
    211      12.2530      0.00000
    212      12.2538      0.00000

 soft charge-density along one line, spin component           1
         0         1         2         3         4         5         6         7         8         9
 total charge-density along one line

------------------------ aborting loop because EDIFF is reached ----------------------------------------

  FREE ENERGIE OF THE ION-ELECTRON SYSTEM (eV)
  free  energy   TOTEN  =      -100.285681 eV

  energy  without entropy=     -100.285333  energy(sigma->0) =     -100.285507

  FORCE on cell =-STRESS in cart. coord.  units (eV/reduce length):
  Direction    X        Y        Z        XY       YZ       ZX
  Alpha Z   3729.01   3729.01   3729.01
  Ewald   -10635.67 -10635.63 -10635.63      0.00     -0.00      0.00
  Hartree   1126.97   1127.00   1127.00     -0.00     -0.00     -0.00
  E(xc)    -1600.01  -1600.01  -1600.01      0.00     -0.00      0.00
  Local     2686.93   2686.86   2686.86      0.00     -0.00      0.00
  n-local  -1520.84  -1526.87  -1514.81      4.44      3.76      3.08
  augment   1370.33   1370.33   1370.33     -0.00     -0.00     -0.00
  Kinetic   4920.55   4914.83   4926.27      0.73     -0.68     -2.09
  Total       77.27     77.27     77.27     -0.00      0.00      0.00
  in kB      240.72    240.72    240.72     -0.00      0.00      0.00

 VOLUME and BASIS-vectors are now :
  energy-cutoff  :      750.00
  volume of cell :      514.28
      direct lattice vectors                 reciprocal lattice vectors
     8.011875652  0.000000000  0.000000000     0.124814718  0.000000000  0.000000000
     0.000000000  8.011875652  0.000000000     0.000000000  0.124814718  0.000000000
     0.000000000  0.000000000  8.011875652     0.000000000  0.000000000  0.124814718

  length of vectors
     8.011875652  8.011875652  8.011875652     0.124814718  0.124814718  0.124814718

 FORCES acting on ions
    electron-ion (+dipol)            ewald-force                    non-local-force                 convergence-correction
   0.433E+01 -.909E-13 0.221E-07   -.440E+01 0.462E-13 -.107E-12   -.368E-01 -.320E-19 0.361E-19   -.248E-04 0.725E-13 -.860E-13
   -.115E+01 -.589E-13 -.222E-07   0.116E+01 0.284E-13 0.284E-13   -.884E-02 0.186E-19 0.331E-20   0.142E-05 0.789E-13 -.137E-12
   0.364E+00 0.355E-12 -.151E-11   -.368E+00 -.142E-13 -.124E-12   0.218E-02 0.158E-19 -.473E-20   -.394E-05 -.761E-13 -.704E-13
   -.294E+00 0.319E-11 -.198E-11   0.289E+00 0.000E+00 -.853E-13   0.384E-02 -.311E-21 -.221E-21   0.495E-05 -.763E-13 -.101E-12
   0.364E+00 -.840E-13 0.826E-11   -.368E+00 0.142E-13 -.131E-12   0.218E-02 0.270E-20 -.258E-20   -.359E-05 0.527E-13 0.314E-13
   -.294E+00 -.934E-13 0.932E-11   0.289E+00 0.000E+00 -.568E-13   0.384E-02 -.580E-21 0.335E-20   0.486E-05 0.526E-13 0.653E-13
   0.153E+00 0.349E-12 -.101E-10   -.152E+00 -.213E-13 0.391E-13   -.686E-03 -.783E-21 0.995E-22   -.299E-05 -.569E-13 -.510E-14
   -.142E+00 -.249E-11 -.891E-11   0.142E+00 -.284E-13 0.568E-13   -.698E-04 -.962E-20 0.441E-20   0.215E-05 -.500E-13 0.811E-14
   -.547E+00 -.105E+01 0.531E-11   0.558E+00 0.107E+01 0.711E-13   0.457E-02 0.925E-03 -.132E-20   0.402E-05 0.434E-05 -.115E-12
   -.550E+00 0.105E+01 0.662E-11   0.561E+00 -.106E+01 -.426E-13   0.443E-02 -.809E-03 0.169E-19   0.356E-05 -.314E-05 -.837E-13
   -.547E+00 0.105E+01 0.536E-11   0.558E+00 -.107E+01 -.284E-13   0.457E-02 -.925E-03 -.169E-19   0.402E-05 -.434E-05 -.114E-12
   -.550E+00 -.105E+01 0.664E-11   0.561E+00 0.106E+01 -.853E-13   0.443E-02 0.809E-03 -.122E-19   0.356E-05 0.314E-05 -.882E-13
   -.161E-01 -.877E-01 0.967E-11   0.170E-01 0.881E-01 -.675E-13   -.822E-03 -.264E-03 -.376E-20   -.106E-05 0.100E-05 0.306E-13
   -.179E-01 0.875E-01 0.669E-11   0.187E-01 -.880E-01 -.675E-13   -.834E-03 0.266E-03 0.235E-21   -.257E-06 -.715E-06 0.937E-14
   -.161E-01 0.877E-01 0.967E-11   0.170E-01 -.881E-01 0.284E-13   -.822E-03 0.264E-03 0.765E-21   -.106E-05 -.100E-05 0.388E-13
   -.179E-01 -.875E-01 0.648E-11   0.187E-01 0.880E-01 0.853E-13   -.834E-03 -.266E-03 0.512E-20   -.257E-06 0.715E-06 0.689E-14
   -.547E+00 -.780E-13 -.105E+01   0.558E+00 0.711E-14 0.107E+01   0.457E-02 0.103E-21 0.925E-03   0.394E-05 0.575E-13 0.441E-05
   -.550E+00 -.121E-12 0.105E+01   0.561E+00 0.711E-14 -.106E+01   0.443E-02 -.207E-19 -.809E-03   0.349E-05 0.737E-13 -.321E-05
   -.161E-01 0.339E-12 -.877E-01   0.170E-01 -.213E-13 0.881E-01   -.822E-03 -.587E-20 -.264E-03   -.103E-05 -.547E-13 0.107E-05
   -.179E-01 -.375E-11 0.875E-01   0.187E-01 -.213E-13 -.880E-01   -.834E-03 0.318E-20 0.266E-03   -.234E-06 -.795E-13 -.787E-06
   -.547E+00 -.890E-13 0.105E+01   0.558E+00 0.000E+00 -.107E+01   0.457E-02 0.125E-20 -.925E-03   0.394E-05 0.538E-13 -.441E-05
   -.550E+00 -.100E-12 -.105E+01   0.561E+00 0.000E+00 0.106E+01   0.443E-02 -.556E-20 0.809E-03   0.349E-05 0.734E-13 0.321E-05
   -.161E-01 0.351E-12 0.877E-01   0.170E-01 -.284E-13 -.881E-01   -.822E-03 -.671E-20 0.264E-03   -.103E-05 -.500E-13 -.107E-05
   -.179E-01 -.395E-11 -.875E-01   0.187E-01 -.284E-13 0.880E-01   -.834E-03 0.646E-20 -.266E-03   -.234E-06 -.773E-13 0.787E-06
   0.684E+00 0.268E-02 0.268E-02   -.694E+00 -.272E-02 -.272E-02   0.407E-02 0.135E-04 0.135E-04   -.410E-05 0.647E-06 0.646E-06
   -.387E+00 -.799E-03 -.799E-03   0.390E+00 0.815E-03 0.815E-03   -.282E-02 -.162E-04 -.162E-04   0.330E-05 0.858E-07 0.860E-07
   0.684E+00 -.268E-02 0.268E-02   -.694E+00 0.272E-02 -.272E-02   0.407E-02 -.135E-04 0.135E-04   -.410E-05 -.647E-06 0.646E-06
   -.387E+00 0.799E-03 -.799E-03   0.390E+00 -.815E-03 0.815E-03   -.282E-02 0.162E-04 -.162E-04   0.330E-05 -.858E-07 0.860E-07
   0.684E+00 0.268E-02 -.268E-02   -.694E+00 -.272E-02 0.272E-02   0.407E-02 0.135E-04 -.135E-04   -.410E-05 0.647E-06 -.646E-06
   -.387E+00 -.799E-03 0.799E-03   0.390E+00 0.815E-03 -.815E-03   -.282E-02 -.162E-04 0.162E-04   0.330E-05 0.858E-07 -.860E-07
   0.684E+00 -.268E-02 -.268E-02   -.694E+00 0.272E-02 0.272E-02   0.407E-02 -.135E-04 -.135E-04   -.410E-05 -.647E-06 -.646E-06
   -.387E+00 0.799E-03 0.799E-03   0.390E+00 -.815E-03 -.815E-03   -.282E-02 0.162E-04 0.162E-04   0.330E-05 -.858E-07 -.860E-07
   -.231E-05 -.138E-10 -.134E-09   -.360E-13 0.180E-12 -.970E-13   0.207E-05 -.271E-18 -.115E-18   -.186E-06 -.151E-12 -.876E-12

 POSITION                                       TOTAL-FORCE (eV/Angst)
      0.01000      0.00000      0.00000        -0.106691      0.000000     -0.000000
      4.00594      0.00000      0.00000         0.005814      0.000000     -0.000000
      0.00000      4.00594      0.00000        -0.001023      0.000000     -0.000000
      4.00594      4.00594      0.00000        -0.001832     -0.000000     -0.000000
      0.00000      0.00000      4.00594        -0.001023      0.000000      0.000000
      4.00594      0.00000      4.00594        -0.001832     -0.000000     -0.000000
      0.00000      4.00594      4.00594         0.000136      0.000000     -0.000000
      4.00594      4.00594      4.00594         0.000105      0.000000      0.000000
      2.00297      2.00297      0.00000         0.015768      0.019431     -0.000000
      6.00891      2.00297      0.00000         0.015339     -0.018808     -0.000000
      2.00297      6.00891      0.00000         0.015768     -0.019431      0.000000
      6.00891      6.00891      0.00000         0.015339      0.018808     -0.000000
      2.00297      2.00297      4.00594         0.000043      0.000208     -0.000000
      6.00891      2.00297      4.00594         0.000042     -0.000205     -0.000000
      2.00297      6.00891      4.00594         0.000043     -0.000208     -0.000000
      6.00891      6.00891      4.00594         0.000042      0.000205      0.000000
      2.00297      0.00000      2.00297         0.015768      0.000000      0.019431
      6.00891      0.00000      2.00297         0.015339      0.000000     -0.018808
      2.00297      4.00594      2.00297         0.000043     -0.000000      0.000208
      6.00891      4.00594      2.00297         0.000042     -0.000000     -0.000205
      2.00297      0.00000      6.00891         0.015768     -0.000000     -0.019431
      6.00891      0.00000      6.00891         0.015339      0.000000      0.018808
      2.00297      4.00594      6.00891         0.000043      0.000000     -0.000208
      6.00891      4.00594      6.00891         0.000042     -0.000000      0.000205
      0.00000      2.00297      2.00297        -0.005257     -0.000030     -0.000030
      4.00594      2.00297      2.00297         0.000652      0.000000      0.000000
      0.00000      6.00891      2.00297        -0.005257      0.000030     -0.000030
      4.00594      6.00891      2.00297         0.000652     -0.000000      0.000000
      0.00000      2.00297      6.00891        -0.005257     -0.000030      0.000030
      4.00594      2.00297      6.00891         0.000652      0.000000     -0.000000
      0.00000      6.00891      6.00891        -0.005257      0.000030      0.000030
      4.00594      6.00891      6.00891         0.000652     -0.000000     -0.000000
    total drift:                               -0.000000     -0.000000     -0.000000

 mean value of Nose-termostat <S>:     1.000 mean value of <T> :     0.000
 mean temperature <T/S>/<1/S>  :     0.000