 vasp.4.6.28 25Jul05 complex
 executed on             LinuxIFC date 2017.01.09  17:41:43

 INCAR:
 POTCAR:   PAW_PBE Cu 05Jan2001
 POTCAR:   PAW_PBE Cu 05Jan2001
   VRHFIN =Cu: d10 p1

   TITEL  = PAW_PBE Cu 05Jan2001
   POMASS =   63.546; ZVAL   =   11.000    mass and valenz
   ENMAX  =  273.214; ENMIN  =  204.910 eV
   QCUT   =   -4.481; QGAM   =    8.962    optimization parameters

   Description
     l     E      TYP  RCUT    TYP  RCUT
     2   .000     23  2.300
     2   .000     23  2.300
     0   .000     23  2.300
     0   .000     23  2.300
     1  -.200     23  2.300
     1   .000     23  2.300
     3   .000      7   .000

 PAW_PBE Cu 05Jan2001                   :

 POSCAR: Cu
  positions in direct lattice

 ion  position               nearest neighbor table
   1  0.001  0.000  0.000-   9 2.46  11 2.46  17 2.46  21 2.46  25 2.47  27 2.47  29 2.47  31 2.47
                            10 2.48  18 2.48  12 2.48  22 2.48
   2  0.500  0.000  0.000-   9 2.47  10 2.47  11 2.47  12 2.47  17 2.47  18 2.47  21 2.47  22 2.47
                            26 2.47  28 2.47  30 2.47  32 2.47
   3  0.000  0.500  0.000-   9 2.47  10 2.47  11 2.47  12 2.47  19 2.47  20 2.47  23 2.47  24 2.47
                            25 2.47  27 2.47  29 2.47  31 2.47
   4  0.500  0.500  0.000-   9 2.47  10 2.47  11 2.47  12 2.47  19 2.47  20 2.47  23 2.47  24 2.47
                            26 2.47  28 2.47  30 2.47  32 2.47
   5  0.000  0.000  0.500-  13 2.47  14 2.47  15 2.47  16 2.47  17 2.47  18 2.47  21 2.47  22 2.47
                            25 2.47  27 2.47  29 2.47  31 2.47
   6  0.500  0.000  0.500-  13 2.47  14 2.47  15 2.47  16 2.47  17 2.47  18 2.47  21 2.47  22 2.47
                            26 2.47  28 2.47  30 2.47  32 2.47
   7  0.000  0.500  0.500-  13 2.47  14 2.47  15 2.47  16 2.47  19 2.47  20 2.47  23 2.47  24 2.47
                            25 2.47  27 2.47  29 2.47  31 2.47
   8  0.500  0.500  0.500-  13 2.47  14 2.47  15 2.47  16 2.47  19 2.47  20 2.47  23 2.47  24 2.47
                            26 2.47  28 2.47  30 2.47  32 2.47
   9  0.250  0.250  0.000-   1 2.46   2 2.47   3 2.47   4 2.47  17 2.47  19 2.47  21 2.47  23 2.47
                            25 2.47  26 2.47  29 2.47  30 2.47
  10  0.750  0.250  0.000-   2 2.47   3 2.47   4 2.47  18 2.47  20 2.47  22 2.47  24 2.47  25 2.47
                            26 2.47  29 2.47  30 2.47   1 2.48
  11  0.250  0.750  0.000-   1 2.46   2 2.47   3 2.47   4 2.47  17 2.47  19 2.47  21 2.47  23 2.47
                            27 2.47  28 2.47  31 2.47  32 2.47
  12  0.750  0.750  0.000-   2 2.47   3 2.47   4 2.47  18 2.47  20 2.47  22 2.47  24 2.47  27 2.47
                            28 2.47  31 2.47  32 2.47   1 2.48
  13  0.250  0.250  0.500-   5 2.47   6 2.47   7 2.47   8 2.47  17 2.47  19 2.47  21 2.47  23 2.47
                            25 2.47  26 2.47  29 2.47  30 2.47
  14  0.750  0.250  0.500-   5 2.47   6 2.47   7 2.47   8 2.47  18 2.47  20 2.47  22 2.47  24 2.47
                            25 2.47  26 2.47  29 2.47  30 2.47
  15  0.250  0.750  0.500-   5 2.47   6 2.47   7 2.47   8 2.47  17 2.47  19 2.47  21 2.47  23 2.47
                            27 2.47  28 2.47  31 2.47  32 2.47
  16  0.750  0.750  0.500-   5 2.47   6 2.47   7 2.47   8 2.47  18 2.47  20 2.47  22 2.47  24 2.47
                            27 2.47  28 2.47  31 2.47  32 2.47
  17  0.250  0.000  0.250-   1 2.46   2 2.47   5 2.47   6 2.47   9 2.47  11 2.47  13 2.47  15 2.47
                            25 2.47  26 2.47  27 2.47  28 2.47
  18  0.750  0.000  0.250-   2 2.47   5 2.47   6 2.47  10 2.47  12 2.47  14 2.47  16 2.47  25 2.47
                            26 2.47  27 2.47  28 2.47   1 2.48
  19  0.250  0.500  0.250-   3 2.47   4 2.47   7 2.47   8 2.47   9 2.47  11 2.47  13 2.47  15 2.47
                            25 2.47  26 2.47  27 2.47  28 2.47
  20  0.750  0.500  0.250-   3 2.47   4 2.47   7 2.47   8 2.47  10 2.47  12 2.47  14 2.47  16 2.47
                            25 2.47  26 2.47  27 2.47  28 2.47
  21  0.250  0.000  0.750-   1 2.46   2 2.47   5 2.47   6 2.47   9 2.47  11 2.47  13 2.47  15 2.47
                            29 2.47  30 2.47  31 2.47  32 2.47
  22  0.750  0.000  0.750-   2 2.47   5 2.47   6 2.47  10 2.47  12 2.47  14 2.47  16 2.47  29 2.47
                            30 2.47  31 2.47  32 2.47   1 2.48
  23  0.250  0.500  0.750-   3 2.47   4 2.47   7 2.47   8 2.47   9 2.47  11 2.47  13 2.47  15 2.47
                            29 2.47  30 2.47  31 2.47  32 2.47
  24  0.750  0.500  0.750-   3 2.47   4 2.47   7 2.47   8 2.47  10 2.47  12 2.47  14 2.47  16 2.47
                            29 2.47  30 2.47  31 2.47  32 2.47
  25  0.000  0.250  0.250-   3 2.47   5 2.47   7 2.47   9 2.47  10 2.47  13 2.47  14 2.47  17 2.47
                            18 2.47  19 2.47  20 2.47   1 2.47
  26  0.500  0.250  0.250-   2 2.47   4 2.47   6 2.47   8 2.47   9 2.47  10 2.47  13 2.47  14 2.47
                            17 2.47  18 2.47  19 2.47  20 2.47
  27  0.000  0.750  0.250-   3 2.47   5 2.47   7 2.47  11 2.47  12 2.47  15 2.47  16 2.47  17 2.47
                            18 2.47  19 2.47  20 2.47   1 2.47
  28  0.500  0.750  0.250-   2 2.47   4 2.47   6 2.47   8 2.47  11 2.47  12 2.47  15 2.47  16 2.47
                            17 2.47  18 2.47  19 2.47  20 2.47
  29  0.000  0.250  0.750-   3 2.47   5 2.47   7 2.47   9 2.47  10 2.47  13 2.47  14 2.47  21 2.47
                            22 2.47  23 2.47  24 2.47   1 2.47
  30  0.500  0.250  0.750-   2 2.47   4 2.47   6 2.47   8 2.47   9 2.47  10 2.47  13 2.47  14 2.47
                            21 2.47  22 2.47  23 2.47  24 2.47
  31  0.000  0.750  0.750-   3 2.47   5 2.47   7 2.47  11 2.47  12 2.47  15 2.47  16 2.47  21 2.47
                            22 2.47  23 2.47  24 2.47   1 2.47
  32  0.500  0.750  0.750-   2 2.47   4 2.47   6 2.47   8 2.47  11 2.47  12 2.47  15 2.47  16 2.47
                            21 2.47  22 2.47  23 2.47  24 2.47

  LATTYP: Found a simple cubic cell.
 ALAT       =     6.9819183585

  Lattice vectors:

 A1 = (   6.9819183585,   0.0000000000,   0.0000000000)
 A2 = (   0.0000000000,   6.9819183585,   0.0000000000)
 A3 = (   0.0000000000,   0.0000000000,   6.9819183585)
 Subroutine PRICEL returns:
 Original cell was already a primitive cell.

Analysis of symmetry for initial positions (statically):

 Routine SETGRP: Setting up the symmetry group for a
 simple cubic supercell.

 Subroutine GETGRP returns: Found  8 space group operations
 (whereof  8 operations were pure point group operations)
 out of a pool of 48 trial point group operations.

The static configuration has the point symmetry C_4v.

Analysis of symmetry for dynamics (positions and initial velocities):

 Subroutine DYNSYM returns: Found  8 space group operations
 (whereof  8 operations were pure point group operations)
 out of a pool of  8 trial space group operations
 (whereof  8 operations were pure point group operations)
 and found also     1 'primitive' translations

The dynamic configuration has the point symmetry C_4v.

 KPOINTS: Automatic mesh

Automatic generation of k-mesh.

 Subroutine IBZKPT returns following result:

 Found    196 irreducible k-points:

 Following reciprocal coordinates:
            Coordinates               Weight
  0.000000  0.000000  0.000000      1.000000
  0.083333  0.000000  0.000000      2.000000
  0.166667  0.000000  0.000000      2.000000
  0.250000  0.000000  0.000000      2.000000
  0.333333  0.000000  0.000000      2.000000
  0.416667  0.000000  0.000000      2.000000
  0.500000  0.000000  0.000000      1.000000
  0.000000  0.083333  0.000000      4.000000
  0.083333  0.083333  0.000000      8.000000
  0.166667  0.083333  0.000000      8.000000
  0.250000  0.083333  0.000000      8.000000
  0.333333  0.083333  0.000000      8.000000
  0.416667  0.083333  0.000000      8.000000
  0.500000  0.083333  0.000000      4.000000
  0.000000  0.166667  0.000000      4.000000
  0.083333  0.166667  0.000000      8.000000
  0.166667  0.166667  0.000000      8.000000
  0.250000  0.166667  0.000000      8.000000
  0.333333  0.166667  0.000000      8.000000
  0.416667  0.166667  0.000000      8.000000
  0.500000  0.166667  0.000000      4.000000
  0.000000  0.250000  0.000000      4.000000
  0.083333  0.250000  0.000000      8.000000
  0.166667  0.250000  0.000000      8.000000
  0.250000  0.250000  0.000000      8.000000
  0.333333  0.250000  0.000000      8.000000
  0.416667  0.250000  0.000000      8.000000
  0.500000  0.250000  0.000000      4.000000
  0.000000  0.333333  0.000000      4.000000
  0.083333  0.333333  0.000000      8.000000
  0.166667  0.333333  0.000000      8.000000
  0.250000  0.333333  0.000000      8.000000
  0.333333  0.333333  0.000000      8.000000
  0.416667  0.333333  0.000000      8.000000
  0.500000  0.333333  0.000000      4.000000
  0.000000  0.416667  0.000000      4.000000
  0.083333  0.416667  0.000000      8.000000
  0.166667  0.416667  0.000000      8.000000
  0.250000  0.416667  0.000000      8.000000
  0.333333  0.416667  0.000000      8.000000
  0.416667  0.416667  0.000000      8.000000
  0.500000  0.416667  0.000000      4.000000
  0.000000  0.500000  0.000000      2.000000
  0.083333  0.500000  0.000000      4.000000
  0.166667  0.500000  0.000000      4.000000
  0.250000  0.500000  0.000000      4.000000
  0.333333  0.500000  0.000000      4.000000
  0.416667  0.500000  0.000000      4.000000
  0.500000  0.500000  0.000000      2.000000
  0.000000  0.083333  0.083333      4.000000
  0.083333  0.083333  0.083333      8.000000
  0.166667  0.083333  0.083333      8.000000
  0.250000  0.083333  0.083333      8.000000
  0.333333  0.083333  0.083333      8.000000
  0.416667  0.083333  0.083333      8.000000
  0.500000  0.083333  0.083333      4.000000
  0.000000  0.166667  0.083333      8.000000
  0.083333  0.166667  0.083333     16.000000
  0.166667  0.166667  0.083333     16.000000
  0.250000  0.166667  0.083333     16.000000
[...]
  0.500000  0.416667  0.416667      4.000000
  0.000000  0.500000  0.416667      4.000000
  0.083333  0.500000  0.416667      8.000000
  0.166667  0.500000  0.416667      8.000000
  0.250000  0.500000  0.416667      8.000000
  0.333333  0.500000  0.416667      8.000000
  0.416667  0.500000  0.416667      8.000000
  0.500000  0.500000  0.416667      4.000000
  0.000000  0.500000  0.500000      1.000000
  0.083333  0.500000  0.500000      2.000000
  0.166667  0.500000  0.500000      2.000000
  0.250000  0.500000  0.500000      2.000000
  0.333333  0.500000  0.500000      2.000000
  0.416667  0.500000  0.500000      2.000000
  0.500000  0.500000  0.500000      1.000000

 Following cartesian coordinates:
            Coordinates               Weight
  0.000000  0.000000  0.000000      1.000000
  0.011936  0.000000  0.000000      2.000000
  0.023871  0.000000  0.000000      2.000000
  0.035807  0.000000  0.000000      2.000000
  0.047742  0.000000  0.000000      2.000000
  0.059678  0.000000  0.000000      2.000000
  0.071614  0.000000  0.000000      1.000000
  0.000000  0.011936  0.000000      4.000000
  0.011936  0.011936  0.000000      8.000000
  0.023871  0.011936  0.000000      8.000000
[...]
  average eigenvalue GAMMA=   0.7467
  0.7467

[...]

 eigenvalue-minimisations  : 43780
 total energy-change (2. order) :-0.2058732E-06  (-0.7869475E-09)
 number of electron  352.0000008 magnetization
 augmentation part   229.2154249 magnetization

 Broyden mixing:
  rms(total) = 0.68613E-05    rms(broyden)= 0.68165E-05
  rms(prec ) = 0.10119E-04
  weight for this iteration     100.00

 eigenvalues of (default mixing * dielectric matrix)
  average eigenvalue GAMMA=   1.2014
  2.5363  2.5363  2.2286  2.0800  2.0800  1.1920  1.1920  1.0198  0.9608  0.9608
  0.7161  0.3171  0.3290  0.3478  0.3648  0.3609

[...]

----------------------------------------- Iteration    1(  22)  ---------------------------------------

 eigenvalue-minimisations  : 43704
 total energy-change (2. order) : 0.7639755E-08  (-0.2414919E-09)
 number of electron  352.0000008 magnetization
 augmentation part   229.2154249 magnetization

 Free energy of the ion-electron system (eV)
  alpha Z        PSCENC =      3843.96185696
  Ewald energy   TEWEN  =    -36613.61309859
  -1/2 Hartree   DENC   =     -9060.97832000
  -V(xc)+E(xc)   XCENC  =      1377.95570231
  PAW double counting   =     35741.75797718   -40394.02918674
  entropy T*S    EENTRO =        -0.00094194
  eigenvalues    EBANDS =       477.43530535
  atomic energy  EATOM  =     44511.34040493
  free energy    TOTEN  =      -116.17030054 eV

  energy without entropy =     -116.16935859  energy(sigma->0) =     -116.16982956

 average (electrostatic) potential at core
  the test charge radii are     1.0053
  (the norm of the test charge is              1.0000)
       1 -39.2374       2 -39.2373       3 -39.2373       4 -39.2373       5 -39.2373
       6 -39.2373       7 -39.2373       8 -39.2373       9 -39.2390      10 -39.2356
      11 -39.2390      12 -39.2356      13 -39.2374      14 -39.2372      15 -39.2374
      16 -39.2372      17 -39.2390      18 -39.2356      19 -39.2374      20 -39.2372
      21 -39.2390      22 -39.2356      23 -39.2374      24 -39.2372      25 -39.2373
      26 -39.2373      27 -39.2373      28 -39.2373      29 -39.2373      30 -39.2373
      31 -39.2373      32 -39.2373

 E-fermi :   4.7882     XC(G=0): -13.4269     alpha+bet :-10.6942
   add alpha+bet to get absolut eigen values

 k-point   1 :       0.0000    0.0000    0.0000
  band No.  band energies     occupation
      1      -5.4321      2.00000
      2      -2.4923      2.00000
      3      -2.4889      2.00000
      4      -2.4889      2.00000
      5      -2.4889      2.00000
      6      -2.4889      2.00000
      7      -2.4855      2.00000
      8      -0.9760      2.00000
      9      -0.9760      2.00000
     10      -0.9760      2.00000
     11      -0.9760      2.00000
     12      -0.8133      2.00000
     13      -0.8133      2.00000
     14      -0.8133      2.00000
     15      -0.5015      2.00000
     16      -0.4994      2.00000
     17      -0.4994      2.00000
     18      -0.4981      2.00000
     19      -0.4978      2.00000
     20      -0.4978      2.00000
     21      -0.4978      2.00000
     22      -0.4978      2.00000
     23      -0.4975      2.00000
     24      -0.4962      2.00000
     25      -0.4962      2.00000
     26      -0.4941      2.00000
     27      -0.2891      2.00000
     28      -0.2890      2.00000
     29      -0.2890      2.00000
     30       0.0246      2.00000
     31       0.0270      2.00000
     32       0.0270      2.00000
     33       0.0270      2.00000
     34       0.0270      2.00000
     35       0.0294      2.00000
     36       0.5008      2.00000
     37       0.5030      2.00000
     38       0.5030      2.00000
     39       0.5030      2.00000
     40       0.5030      2.00000
     41       0.5051      2.00000
     42       0.7441      2.00000
     43       0.7443      2.00000
     44       0.7443      2.00000
     45       0.7468      2.00000
     46       0.7468      2.00000
     47       0.7469      2.00000
     48       0.7469      2.00000
     49       0.7469      2.00000
     50       0.7471      2.00000
     51       0.7471      2.00000
     52       0.7486      2.00000
     53       0.7486      2.00000
     54       0.7499      2.00000
     55       0.7514      2.00000
     56       0.7514      2.00000
     57       0.7520      2.00000
     58       0.7520      2.00000
     59       0.7521      2.00000
     60       0.7521      2.00000
[...]
    198      11.3858      0.00000
    199      11.3863      0.00000
    200      11.3863      0.00000
    201      11.3900      0.00000
    202      11.3900      0.00000
    203      12.6307      0.00000
    204      12.6308      0.00000
    205      12.6308      0.00000
    206      13.6009      0.00000
    207      13.6038      0.00000
    208      13.6038      0.00000
    209      13.6038      0.00000
    210      13.6038      0.00000
    211      13.6066      0.00000
    212      14.6172      0.00000

[...]

 k-point 196 :       0.5000    0.5000    0.5000
  band No.  band energies     occupation
      1      -3.1669      2.00000
      2      -3.1630      2.00000
      3      -3.1630      2.00000
      4      -3.1622      2.00000
      5      -3.1620      2.00000
      6      -3.1613      2.00000
      7      -3.1613      2.00000
      8      -3.1574      2.00000
      9      -0.2746      2.00000
     10      -0.2729      2.00000
     11      -0.2729      2.00000
     12      -0.2721      2.00000
     13      -0.2719      2.00000
     14      -0.2717      2.00000
     15      -0.2706      2.00000
     16      -0.2706      2.00000
     17      -0.2705      2.00000
     18      -0.2704      2.00000
     19      -0.2704      2.00000
     20      -0.2704      2.00000
     21      -0.2702      2.00000
     22      -0.2702      2.00000
     23      -0.2702      2.00000
     24      -0.2701      2.00000
     25      -0.2700      2.00000
     26      -0.2700      2.00000
     27      -0.2689      2.00000
     28      -0.2687      2.00000
     29      -0.2686      2.00000
     30      -0.2678      2.00000
     31      -0.2678      2.00000
     32      -0.2660      2.00000
     33       0.3516      2.00000
     34       0.3521      2.00000
     35       0.3542      2.00000
     36       0.3542      2.00000
     37       0.3549      2.00000
     38       0.3553      2.00000
     39       0.3553      2.00000
     40       0.3554      2.00000
     41       0.3554      2.00000
     42       0.3556      2.00000
     43       0.3556      2.00000
     44       0.3556      2.00000
     45       0.3557      2.00000
     46       0.3558      2.00000
     47       0.3558      2.00000
     48       0.3559      2.00000
     49       0.3560      2.00000
     50       0.3560      2.00000
     51       0.3560      2.00000
     52       0.3564      2.00000
     53       0.3571      2.00000
     54       0.3571      2.00000
     55       0.3591      2.00000
     56       0.3597      2.00000
     57       1.0432      2.00000
     58       1.0457      2.00000
     59       1.0457      2.00000
     60       1.0457      2.00000
[...]
    198      12.0507      0.00000
    199      12.0510      0.00000
    200      12.0512      0.00000
    201      12.0512      0.00000
    202      12.0513      0.00000
    203      12.0513      0.00000
    204      12.0514      0.00000
    205      12.0516      0.00000
    206      12.0517      0.00000
    207      12.0517      0.00000
    208      12.0518      0.00000
    209      12.0520      0.00000
    210      12.0522      0.00000
    211      12.0524      0.00000
    212      12.0525      0.00000

 soft charge-density along one line, spin component           1
         0         1         2         3         4         5         6         7         8         9
 total charge-density along one line

------------------------ aborting loop because EDIFF is reached ----------------------------------------

  FREE ENERGIE OF THE ION-ELECTRON SYSTEM (eV)
  free  energy   TOTEN  =      -116.170301 eV

  energy  without entropy=     -116.169359  energy(sigma->0) =     -116.169830

  FORCE on cell =-STRESS in cart. coord.  units (eV/reduce length):
  Direction    X        Y        Z        XY       YZ       ZX
  Alpha Z   3843.96   3843.96   3843.96
  Ewald   -12204.63 -12204.57 -12204.57      0.00      0.00      0.00
  Hartree   3020.30   3020.34   3020.34     -0.00     -0.00     -0.00
  E(xc)    -2013.37  -2013.37  -2013.37     -0.00     -0.00     -0.00
  Local     4172.84   4172.73   4172.73     -0.00      0.00      0.00
  n-local  -1127.92  -1131.41  -1124.44      1.49      0.91      0.35
  augment   1811.14   1811.14   1811.14     -0.00     -0.00     -0.00
  Kinetic   2546.37   2543.50   2549.24     -0.09     -1.30     -2.52
  Total       48.70     48.70     48.70      0.00      0.00     -0.00
  in kB      229.24    229.24    229.24      0.00      0.00     -0.00

 VOLUME and BASIS-vectors are now :
  energy-cutoff  :      750.00
  volume of cell :      340.35
      direct lattice vectors                 reciprocal lattice vectors
     6.981918359  0.000000000  0.000000000     0.143227112  0.000000000  0.000000000
     0.000000000  6.981918359  0.000000000     0.000000000  0.143227112  0.000000000
     0.000000000  0.000000000  6.981918359     0.000000000  0.000000000  0.143227112

  length of vectors
     6.981918359  6.981918359  6.981918359     0.143227112  0.143227112  0.143227112

 FORCES acting on ions
    electron-ion (+dipol)            ewald-force                    non-local-force                 convergence-correction
   0.653E+01 -.572E-14 0.108E-05   -.665E+01 -.338E-13 0.506E-13   0.845E-02 -.271E-19 0.339E-20   0.403E-04 0.518E-13 -.197E-13
   -.173E+01 -.371E-13 -.109E-05   0.175E+01 -.444E-14 0.166E-12   -.231E-01 0.000E+00 -.136E-19   -.363E-04 0.631E-13 0.740E-14
   0.550E+00 0.367E-12 0.847E-11   -.556E+00 0.178E-14 0.155E-12   0.542E-02 0.000E+00 0.000E+00   -.105E-06 -.617E-13 -.210E-13
   -.442E+00 0.595E-11 0.787E-11   0.436E+00 -.240E-13 -.444E-14   0.620E-02 -.678E-20 0.339E-20   0.926E-06 -.759E-13 0.119E-13
   0.550E+00 -.765E-14 0.421E-09   -.556E+00 -.178E-14 -.764E-13   0.542E-02 -.169E-20 0.678E-20   0.631E-06 0.653E-13 0.596E-13
   -.442E+00 -.276E-13 0.423E-09   0.436E+00 -.355E-14 0.897E-13   0.620E-02 0.508E-20 0.000E+00   0.803E-06 0.737E-13 0.544E-13
   0.230E+00 0.368E-12 -.498E-10   -.229E+00 -.124E-13 0.444E-13   -.555E-03 -.593E-20 0.000E+00   -.366E-04 -.734E-13 0.781E-13
   -.215E+00 -.505E-11 -.472E-10   0.214E+00 -.240E-13 0.147E-12   -.589E-04 0.519E-20 0.000E+00   0.361E-04 -.875E-13 0.649E-13
   -.830E+00 -.160E+01 -.840E-10   0.843E+00 0.162E+01 0.176E-12   0.135E-02 -.443E-02 -.102E-19   0.556E-05 0.657E-05 -.175E-13
   -.837E+00 0.159E+01 -.649E-10   0.849E+00 -.161E+01 0.622E-13   0.164E-02 0.410E-02 0.136E-19   -.691E-05 0.457E-04 -.153E-13
   -.830E+00 0.160E+01 -.840E-10   0.843E+00 -.162E+01 0.109E-12   0.135E-02 0.443E-02 0.136E-19   0.556E-05 -.657E-05 0.161E-13
   -.837E+00 -.159E+01 -.869E-10   0.849E+00 0.161E+01 0.524E-13   0.164E-02 -.410E-02 -.136E-19   -.691E-05 -.457E-04 0.156E-13
   -.231E-01 -.132E+00 0.467E-10   0.254E-01 0.133E+00 -.835E-13   -.216E-02 -.509E-03 0.000E+00   -.155E-04 -.963E-05 0.116E-12
   -.262E-01 0.132E+00 0.546E-10   0.285E-01 -.133E+00 -.266E-13   -.214E-02 0.506E-03 -.678E-20   0.157E-04 0.269E-04 0.631E-13
   -.231E-01 0.132E+00 0.467E-10   0.254E-01 -.133E+00 -.240E-13   -.216E-02 0.509E-03 0.000E+00   -.155E-04 0.963E-05 0.747E-13
   -.262E-01 -.132E+00 0.546E-10   0.285E-01 0.133E+00 0.203E-12   -.214E-02 -.506E-03 0.678E-20   0.157E-04 -.269E-04 0.162E-13
   -.830E+00 0.114E-13 -.160E+01   0.843E+00 -.515E-13 0.162E+01   0.135E-02 -.678E-20 -.443E-02   0.543E-05 0.135E-13 0.667E-05
   -.837E+00 -.259E-13 0.159E+01   0.849E+00 0.533E-14 -.161E+01   0.164E-02 -.678E-20 0.410E-02   -.705E-05 0.461E-13 0.456E-04
   -.231E-01 0.354E-12 -.132E+00   0.254E-01 -.266E-13 0.133E+00   -.216E-02 -.169E-20 -.509E-03   -.155E-04 -.679E-13 -.953E-05
   -.262E-01 -.174E-11 0.132E+00   0.285E-01 -.266E-13 -.133E+00   -.214E-02 -.339E-20 0.506E-03   0.157E-04 -.586E-13 0.268E-04
   -.830E+00 -.989E-15 0.160E+01   0.843E+00 -.329E-13 -.162E+01   0.135E-02 0.136E-19 0.443E-02   0.543E-05 0.495E-13 -.667E-05
   -.837E+00 -.240E-13 -.159E+01   0.849E+00 0.240E-13 0.161E+01   0.164E-02 -.678E-20 -.410E-02   -.705E-05 0.853E-13 -.456E-04
   -.231E-01 0.370E-12 0.132E+00   0.254E-01 0.329E-13 -.133E+00   -.216E-02 -.339E-20 0.509E-03   -.155E-04 -.104E-12 0.953E-05
   -.262E-01 -.712E-12 -.132E+00   0.285E-01 -.240E-13 0.133E+00   -.214E-02 0.508E-20 -.506E-03   0.157E-04 -.984E-13 -.268E-04
   0.104E+01 0.466E-02 0.466E-02   -.105E+01 -.472E-02 -.472E-02   0.585E-02 -.898E-06 -.898E-06   -.324E-06 0.280E-04 0.280E-04
   -.582E+00 -.139E-02 -.139E-02   0.589E+00 0.141E-02 0.141E-02   -.652E-02 -.266E-04 -.266E-04   -.194E-06 0.648E-05 0.648E-05
   0.104E+01 -.466E-02 0.466E-02   -.105E+01 0.472E-02 -.472E-02   0.585E-02 0.898E-06 -.898E-06   -.324E-06 -.280E-04 0.280E-04
   -.582E+00 0.139E-02 -.139E-02   0.589E+00 -.141E-02 0.141E-02   -.652E-02 0.266E-04 -.266E-04   -.194E-06 -.648E-05 0.648E-05
   0.104E+01 0.466E-02 -.466E-02   -.105E+01 -.472E-02 0.472E-02   0.585E-02 -.898E-06 0.898E-06   -.324E-06 0.280E-04 -.280E-04
   -.582E+00 -.139E-02 0.139E-02   0.589E+00 0.141E-02 -.141E-02   -.652E-02 -.266E-04 0.266E-04   -.194E-06 0.648E-05 -.648E-05
   0.104E+01 -.466E-02 -.466E-02   -.105E+01 0.472E-02 0.472E-02   0.585E-02 0.898E-06 0.898E-06   -.324E-06 -.280E-04 -.280E-04
   -.582E+00 0.139E-02 0.139E-02   0.589E+00 -.141E-02 -.141E-02   -.652E-02 0.266E-04 0.266E-04   -.194E-06 -.648E-05 -.648E-05
   -.692E-05 -.397E-11 -.828E-08   0.183E-12 0.419E-13 -.158E-12   0.192E-04 -.203E-19 0.678E-20   -.153E-05 -.410E-12 0.105E-11

 POSITION                                       TOTAL-FORCE (eV/Angst)
      0.01000      0.00000      0.00000        -0.107493      0.000000     -0.000000
      3.49096      0.00000      0.00000         0.001209      0.000000      0.000000
      0.00000      3.49096      0.00000        -0.000481      0.000000     -0.000000
      3.49096      3.49096      0.00000         0.000566     -0.000000     -0.000000
      0.00000      0.00000      3.49096        -0.000481      0.000000     -0.000000
      3.49096      0.00000      3.49096         0.000566      0.000000      0.000000
      0.00000      3.49096      3.49096         0.000054      0.000000     -0.000000
      3.49096      3.49096      3.49096        -0.000180      0.000000      0.000000
      1.74548      1.74548      0.00000         0.013806      0.016273     -0.000000
      5.23644      1.74548      0.00000         0.013431     -0.015717      0.000000
      1.74548      5.23644      0.00000         0.013806     -0.016273      0.000000
      5.23644      5.23644      0.00000         0.013431      0.015717      0.000000
      1.74548      1.74548      3.49096         0.000187      0.000225     -0.000000
      5.23644      1.74548      3.49096         0.000185     -0.000225     -0.000000
      1.74548      5.23644      3.49096         0.000187     -0.000225      0.000000
      5.23644      5.23644      3.49096         0.000185      0.000225     -0.000000
      1.74548      0.00000      1.74548         0.013806      0.000000      0.016273
      5.23644      0.00000      1.74548         0.013431     -0.000000     -0.015717
      1.74548      3.49096      1.74548         0.000187     -0.000000      0.000225
      5.23644      3.49096      1.74548         0.000185      0.000000     -0.000225
      1.74548      0.00000      5.23644         0.013806      0.000000     -0.016273
      5.23644      0.00000      5.23644         0.013431     -0.000000      0.015717
      1.74548      3.49096      5.23644         0.000187     -0.000000     -0.000225
      5.23644      3.49096      5.23644         0.000185      0.000000      0.000225
      0.00000      1.74548      1.74548        -0.001723     -0.000034     -0.000034
      3.49096      1.74548      1.74548         0.000675      0.000003      0.000003
      0.00000      5.23644      1.74548        -0.001723      0.000034     -0.000034
      3.49096      5.23644      1.74548         0.000675     -0.000003      0.000003
      0.00000      1.74548      5.23644        -0.001723     -0.000034      0.000034
      3.49096      1.74548      5.23644         0.000675      0.000003     -0.000003
      0.00000      5.23644      5.23644        -0.001723      0.000034      0.000034
      3.49096      5.23644      5.23644         0.000675     -0.000003     -0.000003
    total drift:                                0.000011     -0.000000     -0.000000

 mean value of Nose-termostat <S>:     1.000 mean value of <T> :     0.000
 mean temperature <T/S>/<1/S>  :     0.000