 vasp.4.6.28 25Jul05 complex
 executed on             LinuxIFC date 2017.01.13  00:07:55

 INCAR:
 POTCAR:   PAW_PBE Ag 06Sep2000
 POTCAR:   PAW_PBE Ag 06Sep2000
   VRHFIN =Ag : s1 d10

   TITEL  = PAW_PBE Ag 06Sep2000
   POMASS =  107.868; ZVAL   =   11.000    mass and valenz
   ENMAX  =  249.846; ENMIN  =  187.385 eV
   QCUT   =   -4.285; QGAM   =    8.570    optimization parameters

   Description
     l     E      TYP  RCUT    TYP  RCUT
     2   .000     23  2.400
     2   .000     23  2.400
     0   .000     23  2.400
     0   .000     23  2.400
     1  -.200     23  2.400
     1  1.500     23  2.400
     3   .000      7   .000

 PAW_PBE Ag 06Sep2000                   :

 POSCAR: Ag
  positions in direct lattice

 ion  position               nearest neighbor table
   1  0.001  0.000  0.000-   9 2.91  11 2.91  17 2.91  21 2.91  25 2.91  27 2.91  29 2.91  31 2.91
                            10 2.92  18 2.92  12 2.92  22 2.92
   2  0.500  0.000  0.000-   9 2.91  10 2.91  11 2.91  12 2.91  17 2.91  18 2.91  21 2.91  22 2.91
                            26 2.91  28 2.91  30 2.91  32 2.91
   3  0.000  0.500  0.000-   9 2.91  10 2.91  11 2.91  12 2.91  19 2.91  20 2.91  23 2.91  24 2.91
                            25 2.91  27 2.91  29 2.91  31 2.91
   4  0.500  0.500  0.000-   9 2.91  10 2.91  11 2.91  12 2.91  19 2.91  20 2.91  23 2.91  24 2.91
                            26 2.91  28 2.91  30 2.91  32 2.91
   5  0.000  0.000  0.500-  13 2.91  14 2.91  15 2.91  16 2.91  17 2.91  18 2.91  21 2.91  22 2.91
                            25 2.91  27 2.91  29 2.91  31 2.91
   6  0.500  0.000  0.500-  13 2.91  14 2.91  15 2.91  16 2.91  17 2.91  18 2.91  21 2.91  22 2.91
                            26 2.91  28 2.91  30 2.91  32 2.91
   7  0.000  0.500  0.500-  13 2.91  14 2.91  15 2.91  16 2.91  19 2.91  20 2.91  23 2.91  24 2.91
                            25 2.91  27 2.91  29 2.91  31 2.91
   8  0.500  0.500  0.500-  13 2.91  14 2.91  15 2.91  16 2.91  19 2.91  20 2.91  23 2.91  24 2.91
                            26 2.91  28 2.91  30 2.91  32 2.91
   9  0.250  0.250  0.000-   1 2.91   2 2.91   3 2.91   4 2.91  17 2.91  19 2.91  21 2.91  23 2.91
                            25 2.91  26 2.91  29 2.91  30 2.91
  10  0.750  0.250  0.000-   2 2.91   3 2.91   4 2.91  18 2.91  20 2.91  22 2.91  24 2.91  25 2.91
                            26 2.91  29 2.91  30 2.91   1 2.92
  11  0.250  0.750  0.000-   1 2.91   2 2.91   3 2.91   4 2.91  17 2.91  19 2.91  21 2.91  23 2.91
                            27 2.91  28 2.91  31 2.91  32 2.91
  12  0.750  0.750  0.000-   2 2.91   3 2.91   4 2.91  18 2.91  20 2.91  22 2.91  24 2.91  27 2.91
                            28 2.91  31 2.91  32 2.91   1 2.92
  13  0.250  0.250  0.500-   5 2.91   6 2.91   7 2.91   8 2.91  17 2.91  19 2.91  21 2.91  23 2.91
                            25 2.91  26 2.91  29 2.91  30 2.91
  14  0.750  0.250  0.500-   5 2.91   6 2.91   7 2.91   8 2.91  18 2.91  20 2.91  22 2.91  24 2.91
                            25 2.91  26 2.91  29 2.91  30 2.91
  15  0.250  0.750  0.500-   5 2.91   6 2.91   7 2.91   8 2.91  17 2.91  19 2.91  21 2.91  23 2.91
                            27 2.91  28 2.91  31 2.91  32 2.91
  16  0.750  0.750  0.500-   5 2.91   6 2.91   7 2.91   8 2.91  18 2.91  20 2.91  22 2.91  24 2.91
                            27 2.91  28 2.91  31 2.91  32 2.91
  17  0.250  0.000  0.250-   1 2.91   2 2.91   5 2.91   6 2.91   9 2.91  11 2.91  13 2.91  15 2.91
                            25 2.91  26 2.91  27 2.91  28 2.91
  18  0.750  0.000  0.250-   2 2.91   5 2.91   6 2.91  10 2.91  12 2.91  14 2.91  16 2.91  25 2.91
                            26 2.91  27 2.91  28 2.91   1 2.92
  19  0.250  0.500  0.250-   3 2.91   4 2.91   7 2.91   8 2.91   9 2.91  11 2.91  13 2.91  15 2.91
                            25 2.91  26 2.91  27 2.91  28 2.91
  20  0.750  0.500  0.250-   3 2.91   4 2.91   7 2.91   8 2.91  10 2.91  12 2.91  14 2.91  16 2.91
                            25 2.91  26 2.91  27 2.91  28 2.91
  21  0.250  0.000  0.750-   1 2.91   2 2.91   5 2.91   6 2.91   9 2.91  11 2.91  13 2.91  15 2.91
                            29 2.91  30 2.91  31 2.91  32 2.91
  22  0.750  0.000  0.750-   2 2.91   5 2.91   6 2.91  10 2.91  12 2.91  14 2.91  16 2.91  29 2.91
                            30 2.91  31 2.91  32 2.91   1 2.92
  23  0.250  0.500  0.750-   3 2.91   4 2.91   7 2.91   8 2.91   9 2.91  11 2.91  13 2.91  15 2.91
                            29 2.91  30 2.91  31 2.91  32 2.91
  24  0.750  0.500  0.750-   3 2.91   4 2.91   7 2.91   8 2.91  10 2.91  12 2.91  14 2.91  16 2.91
                            29 2.91  30 2.91  31 2.91  32 2.91
  25  0.000  0.250  0.250-   3 2.91   5 2.91   7 2.91   9 2.91  10 2.91  13 2.91  14 2.91  17 2.91
                            18 2.91  19 2.91  20 2.91   1 2.91
  26  0.500  0.250  0.250-   2 2.91   4 2.91   6 2.91   8 2.91   9 2.91  10 2.91  13 2.91  14 2.91
                            17 2.91  18 2.91  19 2.91  20 2.91
  27  0.000  0.750  0.250-   3 2.91   5 2.91   7 2.91  11 2.91  12 2.91  15 2.91  16 2.91  17 2.91
                            18 2.91  19 2.91  20 2.91   1 2.91
  28  0.500  0.750  0.250-   2 2.91   4 2.91   6 2.91   8 2.91  11 2.91  12 2.91  15 2.91  16 2.91
                            17 2.91  18 2.91  19 2.91  20 2.91
  29  0.000  0.250  0.750-   3 2.91   5 2.91   7 2.91   9 2.91  10 2.91  13 2.91  14 2.91  21 2.91
                            22 2.91  23 2.91  24 2.91   1 2.91
  30  0.500  0.250  0.750-   2 2.91   4 2.91   6 2.91   8 2.91   9 2.91  10 2.91  13 2.91  14 2.91
                            21 2.91  22 2.91  23 2.91  24 2.91
  31  0.000  0.750  0.750-   3 2.91   5 2.91   7 2.91  11 2.91  12 2.91  15 2.91  16 2.91  21 2.91
                            22 2.91  23 2.91  24 2.91   1 2.91
  32  0.500  0.750  0.750-   2 2.91   4 2.91   6 2.91   8 2.91  11 2.91  12 2.91  15 2.91  16 2.91
                            21 2.91  22 2.91  23 2.91  24 2.91

  LATTYP: Found a simple cubic cell.
 ALAT       =     8.2431850676

  Lattice vectors:

 A1 = (   8.2431850676,   0.0000000000,   0.0000000000)
 A2 = (   0.0000000000,   8.2431850676,   0.0000000000)
 A3 = (   0.0000000000,   0.0000000000,   8.2431850676)
 Subroutine PRICEL returns:
 Original cell was already a primitive cell.

Analysis of symmetry for initial positions (statically):

 Routine SETGRP: Setting up the symmetry group for a
 simple cubic supercell.

 Subroutine GETGRP returns: Found  8 space group operations
 (whereof  8 operations were pure point group operations)
 out of a pool of 48 trial point group operations.

The static configuration has the point symmetry C_4v.

Analysis of symmetry for dynamics (positions and initial velocities):

 Subroutine DYNSYM returns: Found  8 space group operations
 (whereof  8 operations were pure point group operations)
 out of a pool of  8 trial space group operations
 (whereof  8 operations were pure point group operations)
 and found also     1 'primitive' translations

The dynamic configuration has the point symmetry C_4v.

 KPOINTS: Automatic mesh

Automatic generation of k-mesh.

 Subroutine IBZKPT returns following result:

 Found    196 irreducible k-points:

 Following reciprocal coordinates:
            Coordinates               Weight
  0.000000  0.000000  0.000000      1.000000
  0.083333  0.000000  0.000000      2.000000
  0.166667  0.000000  0.000000      2.000000
  0.250000  0.000000  0.000000      2.000000
  0.333333  0.000000  0.000000      2.000000
  0.416667  0.000000  0.000000      2.000000
  0.500000  0.000000  0.000000      1.000000
  0.000000  0.083333  0.000000      4.000000
  0.083333  0.083333  0.000000      8.000000
  0.166667  0.083333  0.000000      8.000000
  0.250000  0.083333  0.000000      8.000000
  0.333333  0.083333  0.000000      8.000000
  0.416667  0.083333  0.000000      8.000000
  0.500000  0.083333  0.000000      4.000000
  0.000000  0.166667  0.000000      4.000000
  0.083333  0.166667  0.000000      8.000000
  0.166667  0.166667  0.000000      8.000000
  0.250000  0.166667  0.000000      8.000000
  0.333333  0.166667  0.000000      8.000000
  0.416667  0.166667  0.000000      8.000000
  0.500000  0.166667  0.000000      4.000000
  0.000000  0.250000  0.000000      4.000000
  0.083333  0.250000  0.000000      8.000000
  0.166667  0.250000  0.000000      8.000000
  0.250000  0.250000  0.000000      8.000000
  0.333333  0.250000  0.000000      8.000000
  0.416667  0.250000  0.000000      8.000000
  0.500000  0.250000  0.000000      4.000000
  0.000000  0.333333  0.000000      4.000000
  0.083333  0.333333  0.000000      8.000000
  0.166667  0.333333  0.000000      8.000000
  0.250000  0.333333  0.000000      8.000000
  0.333333  0.333333  0.000000      8.000000
  0.416667  0.333333  0.000000      8.000000
  0.500000  0.333333  0.000000      4.000000
  0.000000  0.416667  0.000000      4.000000
  0.083333  0.416667  0.000000      8.000000
  0.166667  0.416667  0.000000      8.000000
  0.250000  0.416667  0.000000      8.000000
  0.333333  0.416667  0.000000      8.000000
  0.416667  0.416667  0.000000      8.000000
  0.500000  0.416667  0.000000      4.000000
  0.000000  0.500000  0.000000      2.000000
  0.083333  0.500000  0.000000      4.000000
  0.166667  0.500000  0.000000      4.000000
  0.250000  0.500000  0.000000      4.000000
  0.333333  0.500000  0.000000      4.000000
  0.416667  0.500000  0.000000      4.000000
  0.500000  0.500000  0.000000      2.000000
  0.000000  0.083333  0.083333      4.000000
  0.083333  0.083333  0.083333      8.000000
  0.166667  0.083333  0.083333      8.000000
  0.250000  0.083333  0.083333      8.000000
  0.333333  0.083333  0.083333      8.000000
  0.416667  0.083333  0.083333      8.000000
  0.500000  0.083333  0.083333      4.000000
  0.000000  0.166667  0.083333      8.000000
  0.083333  0.166667  0.083333     16.000000
  0.166667  0.166667  0.083333     16.000000
  0.250000  0.166667  0.083333     16.000000
[...]
  0.500000  0.416667  0.416667      4.000000
  0.000000  0.500000  0.416667      4.000000
  0.083333  0.500000  0.416667      8.000000
  0.166667  0.500000  0.416667      8.000000
  0.250000  0.500000  0.416667      8.000000
  0.333333  0.500000  0.416667      8.000000
  0.416667  0.500000  0.416667      8.000000
  0.500000  0.500000  0.416667      4.000000
  0.000000  0.500000  0.500000      1.000000
  0.083333  0.500000  0.500000      2.000000
  0.166667  0.500000  0.500000      2.000000
  0.250000  0.500000  0.500000      2.000000
  0.333333  0.500000  0.500000      2.000000
  0.416667  0.500000  0.500000      2.000000
  0.500000  0.500000  0.500000      1.000000

 Following cartesian coordinates:
            Coordinates               Weight
  0.000000  0.000000  0.000000      1.000000
  0.010109  0.000000  0.000000      2.000000
  0.020219  0.000000  0.000000      2.000000
  0.030328  0.000000  0.000000      2.000000
  0.040437  0.000000  0.000000      2.000000
  0.050547  0.000000  0.000000      2.000000
  0.060656  0.000000  0.000000      1.000000
  0.000000  0.010109  0.000000      4.000000
  0.010109  0.010109  0.000000      8.000000
  0.020219  0.010109  0.000000      8.000000
[...]
 number of electron  352.0000005 magnetization
 augmentation part   168.7532879 magnetization

[...]

 eigenvalue-minimisations  : 46728
 total energy-change (2. order) : 0.1001172E-07  (-0.9628379E-11)
 number of electron  352.0000005 magnetization
 augmentation part   168.7407367 magnetization

 Broyden mixing:
  rms(total) = 0.31332E-05    rms(broyden)= 0.31283E-05
  rms(prec ) = 0.39279E-05
  weight for this iteration     100.00

 eigenvalues of (default mixing * dielectric matrix)
  average eigenvalue GAMMA=   1.5346
  2.9189  2.6008  2.4897  1.9477  1.1319  1.0100  1.0100  0.7835  0.7270  0.7270

[...]

----------------------------------------- Iteration    1(  16)  ---------------------------------------

 eigenvalue-minimisations  : 46408
 total energy-change (2. order) : 0.9596988E-08  ( 0.5186087E-11)
 number of electron  352.0000005 magnetization
 augmentation part   168.7407367 magnetization

 Free energy of the ion-electron system (eV)
  alpha Z        PSCENC =      3246.40913697
  Ewald energy   TEWEN  =    -31011.47444228
  -1/2 Hartree   DENC   =     -6228.46279536
  -V(xc)+E(xc)   XCENC  =      -358.60779776
  PAW double counting   =     27809.09852622   -26396.61031465
  entropy T*S    EENTRO =        -0.00072596
  eigenvalues    EBANDS =      -347.87082093
  atomic energy  EATOM  =     33197.19690173
  free energy    TOTEN  =       -90.32233200 eV

  energy without entropy =      -90.32160605  energy(sigma->0) =      -90.32196903

 average (electrostatic) potential at core
  the test charge radii are     1.1249
  (the norm of the test charge is              1.0000)
       1 -41.4439       2 -41.4439       3 -41.4438       4 -41.4438       5 -41.4438
       6 -41.4438       7 -41.4438       8 -41.4438       9 -41.4450      10 -41.4427
      11 -41.4450      12 -41.4427      13 -41.4439      14 -41.4438      15 -41.4439
      16 -41.4438      17 -41.4450      18 -41.4427      19 -41.4439      20 -41.4438
      21 -41.4450      22 -41.4427      23 -41.4439      24 -41.4438      25 -41.4438
      26 -41.4438      27 -41.4438      28 -41.4438      29 -41.4438      30 -41.4438
      31 -41.4438      32 -41.4438

 E-fermi :   3.2952     XC(G=0): -12.0537     alpha+bet : -8.3187
   add alpha+bet to get absolut eigen values

 k-point   1 :       0.0000    0.0000    0.0000
  band No.  band energies     occupation
      1      -4.2879      2.00000
      2      -3.0095      2.00000
      3      -3.0095      2.00000
      4      -3.0095      2.00000
      5      -2.9672      2.00000
      6      -2.9672      2.00000
      7      -2.9672      2.00000
      8      -2.9672      2.00000
      9      -2.8810      2.00000
     10      -2.8810      2.00000
     11      -2.8810      2.00000
     12      -2.5540      2.00000
     13      -2.5521      2.00000
     14      -2.5521      2.00000
     15      -2.5521      2.00000
     16      -2.5521      2.00000
     17      -2.5503      2.00000
     18      -2.2884      2.00000
     19      -2.2867      2.00000
     20      -2.2867      2.00000
     21      -2.2867      2.00000
     22      -2.2867      2.00000
     23      -2.2850      2.00000
     24      -2.2061      2.00000
     25      -2.2044      2.00000
     26      -2.2044      2.00000
     27      -2.2044      2.00000
     28      -2.2044      2.00000
     29      -2.2027      2.00000
     30      -1.9689      2.00000
     31      -1.9689      2.00000
     32      -1.9685      2.00000
     33      -1.9678      2.00000
     34      -1.9674      2.00000
     35      -1.9674      2.00000
     36      -1.9674      2.00000
     37      -1.9674      2.00000
     38      -1.9671      2.00000
     39      -1.9663      2.00000
     40      -1.9659      2.00000
     41      -1.9659      2.00000
     42      -1.7613      2.00000
     43      -1.7592      2.00000
     44      -1.7592      2.00000
     45      -1.7582      2.00000
     46      -1.7582      2.00000
     47      -1.7582      2.00000
     48      -1.7582      2.00000
     49      -1.7582      2.00000
     50      -1.7582      2.00000
     51      -1.7573      2.00000
     52      -1.7573      2.00000
     53      -1.7552      2.00000
     54      -1.7036      2.00000
     55      -1.7036      2.00000
     56      -1.7018      2.00000
     57      -1.7018      2.00000
     58      -1.7018      2.00000
     59      -1.7018      2.00000
     60      -1.7017      2.00000
[...]
    202       9.1599      0.00000
    203       9.8384      0.00000
    204       9.8384      0.00000
    205       9.8384      0.00000
    206      10.2074      0.00000
    207      10.2074      0.00000
    208      10.2074      0.00000
    209      10.2074      0.00000
    210      10.2074      0.00000
    211      10.2075      0.00000
    212      11.3262      0.00000
    213      11.3274      0.00000
    214      11.3274      0.00000
    215      11.3274      0.00000
    216      11.3289      0.00000

[...]

 k-point 196 :       0.5000    0.5000    0.5000
  band No.  band energies     occupation
      1      -2.9504      2.00000
      2      -2.9488      2.00000
      3      -2.9487      2.00000
      4      -2.9487      2.00000
      5      -2.9478      2.00000
      6      -2.9478      2.00000
      7      -2.9477      2.00000
      8      -2.9461      2.00000
      9      -2.5200      2.00000
     10      -2.5195      2.00000
     11      -2.5195      2.00000
     12      -2.5194      2.00000
     13      -2.5182      2.00000
     14      -2.5178      2.00000
     15      -2.5176      2.00000
     16      -2.5176      2.00000
     17      -2.5176      2.00000
     18      -2.5175      2.00000
     19      -2.5175      2.00000
     20      -2.5175      2.00000
     21      -2.5173      2.00000
     22      -2.5173      2.00000
     23      -2.5173      2.00000
     24      -2.5172      2.00000
     25      -2.5172      2.00000
     26      -2.5172      2.00000
     27      -2.5171      2.00000
     28      -2.5166      2.00000
     29      -2.5155      2.00000
     30      -2.5154      2.00000
     31      -2.5154      2.00000
     32      -2.5149      2.00000
     33      -1.9779      2.00000
     34      -1.9745      2.00000
     35      -1.9745      2.00000
     36      -1.9743      2.00000
     37      -1.9743      2.00000
     38      -1.9737      2.00000
     39      -1.9735      2.00000
     40      -1.9735      2.00000
     41      -1.9733      2.00000
     42      -1.9732      2.00000
     43      -1.9732      2.00000
     44      -1.9732      2.00000
     45      -1.9732      2.00000
     46      -1.9732      2.00000
     47      -1.9732      2.00000
     48      -1.9731      2.00000
     49      -1.9730      2.00000
     50      -1.9730      2.00000
     51      -1.9727      2.00000
     52      -1.9721      2.00000
     53      -1.9721      2.00000
     54      -1.9719      2.00000
     55      -1.9719      2.00000
     56      -1.9685      2.00000
     57      -1.2572      2.00000
     58      -1.2572      2.00000
     59      -1.2569      2.00000
     60      -1.2566      2.00000
[...]
    202       9.3157      0.00000
    203       9.3157      0.00000
    204       9.3157      0.00000
    205       9.3159      0.00000
    206       9.3159      0.00000
    207       9.3159      0.00000
    208       9.3159      0.00000
    209       9.3160      0.00000
    210       9.3164      0.00000
    211       9.3164      0.00000
    212       9.3168      0.00000
    213       9.3171      0.00000
    214       9.3194      0.00000
    215       9.3210      0.00000
    216       9.3210      0.00000

 soft charge-density along one line, spin component           1
         0         1         2         3         4         5         6         7         8         9
 total charge-density along one line

------------------------ aborting loop because EDIFF is reached ----------------------------------------

  FREE ENERGIE OF THE ION-ELECTRON SYSTEM (eV)
  free  energy   TOTEN  =       -90.322332 eV

  energy  without entropy=      -90.321606  energy(sigma->0) =      -90.321969

  FORCE on cell =-STRESS in cart. coord.  units (eV/reduce length):
  Direction    X        Y        Z        XY       YZ       ZX
  Alpha Z   3246.41   3246.41   3246.41
  Ewald   -10337.23 -10337.19 -10337.19      0.00      0.00      0.00
  Hartree   2076.14   2076.16   2076.16      0.00     -0.00     -0.00
  E(xc)    -1861.77  -1861.77  -1861.77      0.00      0.00     -0.00
  Local     3284.65   3284.59   3284.59     -0.00      0.00     -0.00
  n-local  -2095.86  -2099.81  -2091.91      1.76      1.14      0.52
  augment   1341.89   1341.89   1341.89     -0.00     -0.00     -0.00
  Kinetic   4356.16   4349.57   4362.75      0.64     -0.64     -1.92
  Total       10.39     10.39     10.39      0.00      0.00      0.00
  in kB       29.72     29.72     29.72      0.00      0.00      0.00

 VOLUME and BASIS-vectors are now :
  energy-cutoff  :      750.00
  volume of cell :      560.13
      direct lattice vectors                 reciprocal lattice vectors
     8.243185068  0.000000000  0.000000000     0.121312332  0.000000000  0.000000000
     0.000000000  8.243185068  0.000000000     0.000000000  0.121312332  0.000000000
     0.000000000  0.000000000  8.243185068     0.000000000  0.000000000  0.121312332

  length of vectors
     8.243185068  8.243185068  8.243185068     0.121312332  0.121312332  0.121312332

 FORCES acting on ions
    electron-ion (+dipol)            ewald-force                    non-local-force                 convergence-correction
   0.401E+01 0.589E-13 0.570E-07   -.404E+01 0.533E-13 0.107E-13   -.258E-01 -.164E-20 -.371E-20   -.145E-04 0.942E-13 -.131E-12
   -.106E+01 0.220E-12 -.571E-07   0.107E+01 0.114E-12 0.128E-12   -.836E-02 0.226E-20 -.598E-20   0.211E-05 0.727E-13 -.213E-12
   0.335E+00 -.112E-12 0.355E-10   -.338E+00 0.888E-13 0.533E-13   0.200E-02 0.107E-20 0.236E-21   0.119E-05 -.247E-12 -.776E-13
   -.269E+00 0.109E-11 0.356E-10   0.265E+00 0.853E-13 0.568E-13   0.367E-02 -.360E-20 0.248E-20   -.310E-05 -.223E-12 -.114E-12
   0.335E+00 0.715E-13 -.164E-10   -.338E+00 0.817E-13 0.110E-12   0.200E-02 0.123E-19 -.499E-21   0.163E-05 0.762E-13 -.141E-13
   -.269E+00 0.266E-13 -.151E-10   0.265E+00 0.853E-13 0.171E-12   0.367E-02 -.535E-21 0.107E-19   -.319E-05 0.554E-13 0.562E-13
   0.140E+00 -.123E-12 -.171E-10   -.139E+00 0.117E-12 0.121E-12   -.937E-03 0.135E-20 0.125E-19   0.432E-05 -.231E-12 -.723E-13
   -.130E+00 -.635E-11 -.154E-10   0.130E+00 0.114E-12 0.114E-12   -.561E-03 -.232E-20 -.409E-20   -.240E-05 -.209E-12 -.502E-13
   -.510E+00 -.979E+00 -.543E-10   0.512E+00 0.985E+00 0.675E-13   0.448E-02 0.281E-02 0.163E-20   0.179E-05 0.486E-05 -.171E-12
   -.513E+00 0.972E+00 -.624E-10   0.515E+00 -.976E+00 0.110E-12   0.451E-02 -.284E-02 -.408E-20   0.582E-05 -.598E-05 -.119E-12
   -.510E+00 0.979E+00 -.544E-10   0.512E+00 -.985E+00 0.128E-12   0.448E-02 -.281E-02 0.245E-20   0.179E-05 -.486E-05 -.133E-12
   -.513E+00 -.972E+00 -.469E-10   0.515E+00 0.976E+00 0.128E-12   0.451E-02 0.284E-02 0.846E-20   0.582E-05 0.598E-05 -.971E-13
   -.140E-01 -.811E-01 0.525E-10   0.156E-01 0.809E-01 0.153E-12   -.141E-02 0.259E-03 -.205E-20   -.192E-05 0.106E-07 0.238E-13
   -.155E-01 0.810E-01 0.533E-10   0.172E-01 -.808E-01 0.959E-13   -.140E-02 -.262E-03 -.360E-21   0.164E-05 -.106E-05 -.272E-13
   -.140E-01 0.811E-01 0.526E-10   0.156E-01 -.809E-01 0.853E-13   -.141E-02 -.259E-03 -.137E-20   -.192E-05 -.106E-07 -.215E-13
   -.155E-01 -.810E-01 0.378E-10   0.172E-01 0.808E-01 0.853E-13   -.140E-02 0.262E-03 0.169E-21   0.164E-05 0.106E-05 -.515E-13
   -.510E+00 0.298E-13 -.979E+00   0.512E+00 0.107E-12 0.985E+00   0.448E-02 -.693E-20 0.281E-02   0.170E-05 0.426E-13 0.493E-05
   -.513E+00 0.336E-13 0.972E+00   0.515E+00 0.107E-12 -.976E+00   0.451E-02 0.195E-19 -.284E-02   0.574E-05 0.817E-13 -.605E-05
   -.140E-01 0.786E-12 -.811E-01   0.156E-01 0.924E-13 0.809E-01   -.141E-02 0.259E-20 0.259E-03   -.190E-05 -.191E-12 0.822E-07
   -.155E-01 0.923E-11 0.810E-01   0.172E-01 0.924E-13 -.808E-01   -.140E-02 0.110E-20 -.262E-03   0.166E-05 -.231E-12 -.113E-05
   -.510E+00 0.120E-12 0.979E+00   0.512E+00 0.568E-13 -.985E+00   0.448E-02 0.651E-21 -.281E-02   0.170E-05 0.849E-13 -.493E-05
   -.513E+00 0.684E-13 -.972E+00   0.515E+00 0.853E-13 0.976E+00   0.451E-02 -.455E-20 0.284E-02   0.574E-05 0.105E-12 0.605E-05
   -.140E-01 0.103E-11 0.811E-01   0.156E-01 0.995E-13 -.809E-01   -.141E-02 -.218E-21 -.259E-03   -.190E-05 -.230E-12 -.822E-07
   -.155E-01 -.671E-11 -.810E-01   0.172E-01 0.995E-13 0.808E-01   -.140E-02 -.229E-20 0.262E-03   0.166E-05 -.254E-12 0.113E-05
   0.634E+00 0.244E-02 0.244E-02   -.637E+00 -.243E-02 -.243E-02   0.184E-02 -.172E-04 -.172E-04   -.146E-05 -.725E-06 -.725E-06
   -.356E+00 -.713E-03 -.713E-03   0.358E+00 0.728E-03 0.728E-03   -.193E-02 -.131E-04 -.131E-04   -.234E-05 -.447E-06 -.447E-06
   0.634E+00 -.244E-02 0.244E-02   -.637E+00 0.243E-02 -.243E-02   0.184E-02 0.172E-04 -.172E-04   -.146E-05 0.725E-06 -.725E-06
   -.356E+00 0.713E-03 -.713E-03   0.358E+00 -.728E-03 0.728E-03   -.193E-02 0.131E-04 -.131E-04   -.234E-05 0.447E-06 -.447E-06
   0.634E+00 0.244E-02 -.244E-02   -.637E+00 -.243E-02 0.243E-02   0.184E-02 -.172E-04 0.172E-04   -.146E-05 -.725E-06 0.725E-06
   -.356E+00 -.713E-03 0.713E-03   0.358E+00 0.728E-03 -.728E-03   -.193E-02 -.131E-04 0.131E-04   -.234E-05 -.447E-06 0.447E-06
   0.634E+00 -.244E-02 -.244E-02   -.637E+00 0.243E-02 0.243E-02   0.184E-02 0.172E-04 0.172E-04   -.146E-05 0.725E-06 0.725E-06
   -.356E+00 0.713E-03 0.713E-03   0.358E+00 -.728E-03 -.728E-03   -.193E-02 0.131E-04 0.131E-04   -.234E-05 0.447E-06 0.447E-06
   -.591E-06 0.199E-11 -.250E-09   0.720E-13 0.816E-13 -.122E-12   0.616E-05 -.405E-18 -.610E-19   -.709E-07 -.644E-12 -.535E-12

 POSITION                                       TOTAL-FORCE (eV/Angst)
      0.01000      0.00000      0.00000        -0.052336      0.000000      0.000000
      4.12159      0.00000      0.00000         0.001160     -0.000000     -0.000000
      0.00000      4.12159      0.00000        -0.000363      0.000000     -0.000000
      4.12159      4.12159      0.00000        -0.000446      0.000000      0.000000
      0.00000      0.00000      4.12159        -0.000363     -0.000000      0.000000
      4.12159      0.00000      4.12159        -0.000446      0.000000     -0.000000
      0.00000      4.12159      4.12159        -0.000174      0.000000      0.000000
      4.12159      4.12159      4.12159        -0.000123      0.000000      0.000000
      2.06080      2.06080      0.00000         0.006874      0.008060      0.000000
      6.18239      2.06080      0.00000         0.006665     -0.007765     -0.000000
      2.06080      6.18239      0.00000         0.006874     -0.008060      0.000000
      6.18239      6.18239      0.00000         0.006665      0.007765     -0.000000
      2.06080      2.06080      4.12159         0.000236      0.000053      0.000000
      6.18239      2.06080      4.12159         0.000238     -0.000051      0.000000
      2.06080      6.18239      4.12159         0.000236     -0.000053      0.000000
      6.18239      6.18239      4.12159         0.000238      0.000051     -0.000000
      2.06080      0.00000      2.06080         0.006874     -0.000000      0.008060
      6.18239      0.00000      2.06080         0.006665     -0.000000     -0.007765
      2.06080      4.12159      2.06080         0.000236      0.000000      0.000053
      6.18239      4.12159      2.06080         0.000238     -0.000000     -0.000051
      2.06080      0.00000      6.18239         0.006874      0.000000     -0.008060
      6.18239      0.00000      6.18239         0.006665     -0.000000      0.007765
      2.06080      4.12159      6.18239         0.000236      0.000000     -0.000053
      6.18239      4.12159      6.18239         0.000238     -0.000000      0.000051
      0.00000      2.06080      2.06080        -0.001308     -0.000010     -0.000010
      4.12159      2.06080      2.06080         0.000567      0.000001      0.000001
      0.00000      6.18239      2.06080        -0.001308      0.000010     -0.000010
      4.12159      6.18239      2.06080         0.000567     -0.000001      0.000001
      0.00000      2.06080      6.18239        -0.001308     -0.000010      0.000010
      4.12159      2.06080      6.18239         0.000567      0.000001     -0.000001
      0.00000      6.18239      6.18239        -0.001308      0.000010      0.000010
      4.12159      6.18239      6.18239         0.000567     -0.000001     -0.000001
    total drift:                                0.000006      0.000000     -0.000000

 mean value of Nose-termostat <S>:     1.000 mean value of <T> :     0.000
 mean temperature <T/S>/<1/S>  :     0.000