 vasp.4.6.28 25Jul05 complex
 executed on             LinuxIFC date 2016.10.19  12:36:34

 INCAR:
 POTCAR:   PAW_PBE Al 04Jan2001
 POTCAR:   PAW_PBE Al 04Jan2001
   VRHFIN =Al: s2p1

   TITEL  = PAW_PBE Al 04Jan2001
   POMASS =   26.982; ZVAL   =    3.000    mass and valenz
   ENMAX  =  240.300; ENMIN  =  180.225 eV
   QCUT   =   -4.203; QGAM   =    8.405    optimization parameters

   Description
     l     E      TYP  RCUT    TYP  RCUT
     0   .000     23  1.900
     0   .000     23  1.900
     1   .000     23  1.900
     1  1.000     23  1.900
     2   .000      7  1.900

 PAW_PBE Al 04Jan2001                   :

 POSCAR: Al
  positions in direct lattice

 ion  position               nearest neighbor table
   1  0.251  0.250  0.000-  18 2.73  22 2.73  26 2.73  28 2.73   9 2.74  11 2.74  13 2.74  15 2.74
                            25 2.75  21 2.75  27 2.75  17 2.75
   2  0.750  0.250  0.000-  10 2.74  12 2.74  14 2.74  16 2.74  17 2.74  18 2.74  21 2.74  22 2.74
                            25 2.74  26 2.74  27 2.74  28 2.74
   3  0.250  0.750  0.000-   9 2.74  11 2.74  13 2.74  15 2.74  19 2.74  20 2.74  23 2.74  24 2.74
                            25 2.74  26 2.74  27 2.74  28 2.74
   4  0.750  0.750  0.000-  10 2.74  12 2.74  14 2.74  16 2.74  19 2.74  20 2.74  23 2.74  24 2.74
                            25 2.74  26 2.74  27 2.74  28 2.74
   5  0.250  0.250  0.500-   9 2.74  11 2.74  13 2.74  15 2.74  17 2.74  18 2.74  21 2.74  22 2.74
                            29 2.74  30 2.74  31 2.74  32 2.74
   6  0.750  0.250  0.500-  10 2.74  12 2.74  14 2.74  16 2.74  17 2.74  18 2.74  21 2.74  22 2.74
                            29 2.74  30 2.74  31 2.74  32 2.74
   7  0.250  0.750  0.500-   9 2.74  11 2.74  13 2.74  15 2.74  19 2.74  20 2.74  23 2.74  24 2.74
                            29 2.74  30 2.74  31 2.74  32 2.74
   8  0.750  0.750  0.500-  10 2.74  12 2.74  14 2.74  16 2.74  19 2.74  20 2.74  23 2.74  24 2.74
                            29 2.74  30 2.74  31 2.74  32 2.74
   9  0.250  0.000  0.250-   3 2.74   5 2.74   7 2.74  17 2.74  18 2.74  19 2.74  20 2.74  25 2.74
                            26 2.74  29 2.74  30 2.74   1 2.74
  10  0.750  0.000  0.250-   2 2.74   4 2.74   6 2.74   8 2.74  17 2.74  18 2.74  19 2.74  20 2.74
                            25 2.74  26 2.74  29 2.74  30 2.74
  11  0.250  0.500  0.250-   3 2.74   5 2.74   7 2.74  17 2.74  18 2.74  19 2.74  20 2.74  27 2.74
                            28 2.74  31 2.74  32 2.74   1 2.74
  12  0.750  0.500  0.250-   2 2.74   4 2.74   6 2.74   8 2.74  17 2.74  18 2.74  19 2.74  20 2.74
                            27 2.74  28 2.74  31 2.74  32 2.74
  13  0.250  0.000  0.750-   3 2.74   5 2.74   7 2.74  21 2.74  22 2.74  23 2.74  24 2.74  25 2.74
                            26 2.74  29 2.74  30 2.74   1 2.74
  14  0.750  0.000  0.750-   2 2.74   4 2.74   6 2.74   8 2.74  21 2.74  22 2.74  23 2.74  24 2.74
                            25 2.74  26 2.74  29 2.74  30 2.74
  15  0.250  0.500  0.750-   3 2.74   5 2.74   7 2.74  21 2.74  22 2.74  23 2.74  24 2.74  27 2.74
                            28 2.74  31 2.74  32 2.74   1 2.74
  16  0.750  0.500  0.750-   2 2.74   4 2.74   6 2.74   8 2.74  21 2.74  22 2.74  23 2.74  24 2.74
                            27 2.74  28 2.74  31 2.74  32 2.74
  17  0.000  0.250  0.250-   2 2.74   5 2.74   6 2.74   9 2.74  10 2.74  11 2.74  12 2.74  25 2.74
                            27 2.74  29 2.74  31 2.74   1 2.75
  18  0.500  0.250  0.250-   1 2.73   2 2.74   5 2.74   6 2.74   9 2.74  10 2.74  11 2.74  12 2.74
                            26 2.74  28 2.74  30 2.74  32 2.74
  19  0.000  0.750  0.250-   3 2.74   4 2.74   7 2.74   8 2.74   9 2.74  10 2.74  11 2.74  12 2.74
                            25 2.74  27 2.74  29 2.74  31 2.74
  20  0.500  0.750  0.250-   3 2.74   4 2.74   7 2.74   8 2.74   9 2.74  10 2.74  11 2.74  12 2.74
                            26 2.74  28 2.74  30 2.74  32 2.74
  21  0.000  0.250  0.750-   2 2.74   5 2.74   6 2.74  13 2.74  14 2.74  15 2.74  16 2.74  25 2.74
                            27 2.74  29 2.74  31 2.74   1 2.75
  22  0.500  0.250  0.750-   1 2.73   2 2.74   5 2.74   6 2.74  13 2.74  14 2.74  15 2.74  16 2.74
                            26 2.74  28 2.74  30 2.74  32 2.74
  23  0.000  0.750  0.750-   3 2.74   4 2.74   7 2.74   8 2.74  13 2.74  14 2.74  15 2.74  16 2.74
                            25 2.74  27 2.74  29 2.74  31 2.74
  24  0.500  0.750  0.750-   3 2.74   4 2.74   7 2.74   8 2.74  13 2.74  14 2.74  15 2.74  16 2.74
                            26 2.74  28 2.74  30 2.74  32 2.74
  25  0.000  0.000  0.000-   2 2.74   3 2.74   4 2.74   9 2.74  10 2.74  13 2.74  14 2.74  17 2.74
                            19 2.74  21 2.74  23 2.74   1 2.75
  26  0.500  0.000  0.000-   1 2.73   2 2.74   3 2.74   4 2.74   9 2.74  10 2.74  13 2.74  14 2.74
                            18 2.74  20 2.74  22 2.74  24 2.74
  27  0.000  0.500  0.000-   2 2.74   3 2.74   4 2.74  11 2.74  12 2.74  15 2.74  16 2.74  17 2.74
                            19 2.74  21 2.74  23 2.74   1 2.75
  28  0.500  0.500  0.000-   1 2.73   2 2.74   3 2.74   4 2.74  11 2.74  12 2.74  15 2.74  16 2.74
                            18 2.74  20 2.74  22 2.74  24 2.74
  29  0.000  0.000  0.500-   5 2.74   6 2.74   7 2.74   8 2.74   9 2.74  10 2.74  13 2.74  14 2.74
                            17 2.74  19 2.74  21 2.74  23 2.74
  30  0.500  0.000  0.500-   5 2.74   6 2.74   7 2.74   8 2.74   9 2.74  10 2.74  13 2.74  14 2.74
                            18 2.74  20 2.74  22 2.74  24 2.74
  31  0.000  0.500  0.500-   5 2.74   6 2.74   7 2.74   8 2.74  11 2.74  12 2.74  15 2.74  16 2.74
                            17 2.74  19 2.74  21 2.74  23 2.74
  32  0.500  0.500  0.500-   5 2.74   6 2.74   7 2.74   8 2.74  11 2.74  12 2.74  15 2.74  16 2.74
                            18 2.74  20 2.74  22 2.74  24 2.74

  LATTYP: Found a simple cubic cell.
 ALAT       =     7.7514238080

  Lattice vectors:

 A1 = (   7.7514238080,   0.0000000000,   0.0000000000)
 A2 = (   0.0000000000,   7.7514238080,   0.0000000000)
 A3 = (   0.0000000000,   0.0000000000,   7.7514238080)
 Subroutine PRICEL returns:
 Original cell was already a primitive cell.

Analysis of symmetry for initial positions (statically):

 Routine SETGRP: Setting up the symmetry group for a
 simple cubic supercell.

 Subroutine GETGRP returns: Found  8 space group operations
 (whereof  2 operations were pure point group operations)
 out of a pool of 48 trial point group operations.

The static configuration has the point symmetry C_1h.
 The point group associated with its full space group is C_4v.

Analysis of symmetry for dynamics (positions and initial velocities):

 Subroutine DYNSYM returns: Found  8 space group operations
 (whereof  2 operations were pure point group operations)
 out of a pool of  8 trial space group operations
 (whereof  2 operations were pure point group operations)
 and found also     1 'primitive' translations

The dynamic configuration has the point symmetry C_1h.
 The point group associated with its full space group is C_4v.

 KPOINTS: Automatic mesh

Automatic generation of k-mesh.
 generate k-points for:   6   6   6

 Subroutine IBZKPT returns following result:

 Found     40 irreducible k-points:

 Following reciprocal coordinates:
            Coordinates               Weight
  0.000000  0.000000  0.000000      1.000000
  0.166667  0.000000  0.000000      2.000000
  0.333333  0.000000  0.000000      2.000000
  0.500000  0.000000  0.000000      1.000000
  0.000000  0.166667  0.000000      4.000000
  0.166667  0.166667  0.000000      8.000000
  0.333333  0.166667  0.000000      8.000000
  0.500000  0.166667  0.000000      4.000000
  0.000000  0.333333  0.000000      4.000000
  0.166667  0.333333  0.000000      8.000000
  0.333333  0.333333  0.000000      8.000000
  0.500000  0.333333  0.000000      4.000000
  0.000000  0.500000  0.000000      2.000000
  0.166667  0.500000  0.000000      4.000000
  0.333333  0.500000  0.000000      4.000000
  0.500000  0.500000  0.000000      2.000000
  0.000000  0.166667  0.166667      4.000000
  0.166667  0.166667  0.166667      8.000000
  0.333333  0.166667  0.166667      8.000000
  0.500000  0.166667  0.166667      4.000000
  0.000000  0.333333  0.166667      8.000000
  0.166667  0.333333  0.166667     16.000000
  0.333333  0.333333  0.166667     16.000000
  0.500000  0.333333  0.166667      8.000000
  0.000000  0.500000  0.166667      4.000000
  0.166667  0.500000  0.166667      8.000000
  0.333333  0.500000  0.166667      8.000000
  0.500000  0.500000  0.166667      4.000000
  0.000000  0.333333  0.333333      4.000000
  0.166667  0.333333  0.333333      8.000000
  0.333333  0.333333  0.333333      8.000000
  0.500000  0.333333  0.333333      4.000000
  0.000000  0.500000  0.333333      4.000000
  0.166667  0.500000  0.333333      8.000000
  0.333333  0.500000  0.333333      8.000000
  0.500000  0.500000  0.333333      4.000000
  0.000000  0.500000  0.500000      1.000000
  0.166667  0.500000  0.500000      2.000000
  0.333333  0.500000  0.500000      2.000000
  0.500000  0.500000  0.500000      1.000000

 Following cartesian coordinates:
            Coordinates               Weight
  0.000000  0.000000  0.000000      1.000000
  0.021501  0.000000  0.000000      2.000000
  0.043003  0.000000  0.000000      2.000000
  0.064504  0.000000  0.000000      1.000000
  0.000000  0.021501  0.000000      4.000000
  0.021501  0.021501  0.000000      8.000000
  0.043003  0.021501  0.000000      8.000000
  0.064504  0.021501  0.000000      4.000000
  0.000000  0.043003  0.000000      4.000000
  0.021501  0.043003  0.000000      8.000000
  0.043003  0.043003  0.000000      8.000000
  0.064504  0.043003  0.000000      4.000000
  0.000000  0.064504  0.000000      2.000000
  0.021501  0.064504  0.000000      4.000000
  0.043003  0.064504  0.000000      4.000000
  0.064504  0.064504  0.000000      2.000000
  0.000000  0.021501  0.021501      4.000000
  0.021501  0.021501  0.021501      8.000000
  0.043003  0.021501  0.021501      8.000000
  0.064504  0.021501  0.021501      4.000000
  0.000000  0.043003  0.021501      8.000000
  0.021501  0.043003  0.021501     16.000000
  0.043003  0.043003  0.021501     16.000000
  0.064504  0.043003  0.021501      8.000000
  0.000000  0.064504  0.021501      4.000000
  0.021501  0.064504  0.021501      8.000000
  0.043003  0.064504  0.021501      8.000000
  0.064504  0.064504  0.021501      4.000000
  0.000000  0.043003  0.043003      4.000000
  0.021501  0.043003  0.043003      8.000000
  0.043003  0.043003  0.043003      8.000000
  0.064504  0.043003  0.043003      4.000000
  0.000000  0.064504  0.043003      4.000000
  0.021501  0.064504  0.043003      8.000000
  0.043003  0.064504  0.043003      8.000000
  0.064504  0.064504  0.043003      4.000000
  0.000000  0.064504  0.064504      1.000000
  0.021501  0.064504  0.064504      2.000000
  0.043003  0.064504  0.064504      2.000000
  0.064504  0.064504  0.064504      1.000000

 I would recommend the setting:
   dimension x,y,z NGX =    57 NGY =   57 NGZ =   57
 SYSTEM =  unknown system
 POSCAR =  Al

[...]
 augmentation part    96.0000000 magnetization

[...]

 Broyden mixing:
  rms(total) = 0.55746E+00    rms(broyden)= 0.55746E+00
  rms(prec ) = 0.80026E+00
  weight for this iteration     100.00

[...]

 eigenvalues of (default mixing * dielectric matrix)
  average eigenvalue GAMMA=   2.6361
  2.6361

[...]

 eigenvalue-minimisations  :  3688
 total energy-change (2. order) : 0.1263425E-07  (-0.4585742E-10)
 number of electron   95.9999999 magnetization
 augmentation part    -1.1656473 magnetization

 Broyden mixing:
  rms(total) = 0.98103E-06    rms(broyden)= 0.98102E-06
  rms(prec ) = 0.13335E-05
  weight for this iteration     100.00

 eigenvalues of (default mixing * dielectric matrix)
  average eigenvalue GAMMA=   1.6690
  2.6892  2.6892  2.5196  1.8658  1.3865  0.7933  1.0068  1.0068  1.0636

[...]

----------------------------------------- Iteration    1(  15)  ---------------------------------------

 eigenvalue-minimisations  :  3560
 total energy-change (2. order) :-0.2283286E-08  (-0.9052259E-11)
 number of electron   95.9999999 magnetization
 augmentation part    -1.1656473 magnetization

 Free energy of the ion-electron system (eV)
  alpha Z        PSCENC =        -7.38484195
  Ewald energy   TEWEN  =     -2452.97479168
  -1/2 Hartree   DENC   =        -4.21825169
  -V(xc)+E(xc)   XCENC  =      -827.90174234
  PAW double counting   =      1156.25831253     -134.86845375
  entropy T*S    EENTRO =        -0.00115336
  eigenvalues    EBANDS =       440.27416289
  atomic energy  EATOM  =      1713.22913220
  free energy    TOTEN  =      -117.58762716 eV

  energy without entropy =     -117.58647380  energy(sigma->0) =     -117.58705048

 average (electrostatic) potential at core
  the test charge radii are     1.0406
  (the norm of the test charge is              1.0000)
       1 -71.0764       2 -71.0765       3 -71.0764       4 -71.0764       5 -71.0764
       6 -71.0764       7 -71.0764       8 -71.0764       9 -71.0764      10 -71.0764
      11 -71.0764      12 -71.0764      13 -71.0764      14 -71.0764      15 -71.0764
      16 -71.0764      17 -71.0770      18 -71.0759      19 -71.0765      20 -71.0764
      21 -71.0770      22 -71.0759      23 -71.0765      24 -71.0764      25 -71.0770
      26 -71.0759      27 -71.0770      28 -71.0759      29 -71.0765      30 -71.0764
      31 -71.0765      32 -71.0764

 E-fermi :   9.3448     XC(G=0): -10.6598     alpha+bet :-16.8650
   add alpha+bet to get absolut eigen values

 k-point   1 :       0.0000    0.0000    0.0000
  band No.  band energies     occupation
      1      -2.6572      2.00000
      2      -0.2233      2.00000
      3      -0.2193      2.00000
      4      -0.2193      2.00000
      5      -0.2193      2.00000
      6      -0.2193      2.00000
      7      -0.2153      2.00000
      8       2.1638      2.00000
      9       2.1683      2.00000
     10       2.1683      2.00000
     11       2.1702      2.00000
     12       2.1704      2.00000
     13       2.1704      2.00000
     14       2.1704      2.00000
     15       2.1704      2.00000
     16       2.1705      2.00000
     17       2.1724      2.00000
     18       2.1724      2.00000
     19       2.1769      2.00000
     20       4.2685      2.00000
     21       4.2686      2.00000
     22       4.2686      2.00000
     23       4.2686      2.00000
     24       4.8151      2.00000
     25       4.8151      2.00000
     26       4.8152      2.00000
     27       4.8152      2.00000
     28       6.1458      2.00000
     29       6.1458      2.00000
     30       6.1458      2.00000
     31       7.7211      2.00000
     32       7.7211      2.00000
     33       7.7211      2.00000
     34       8.3630      2.00000
     35       8.3630      2.00000
     36       8.3677      2.00000
     37       8.3677      2.00000
     38       8.3679      2.00000
     39       8.3679      2.00000
     40       8.3679      2.00000
     41       8.3680      2.00000
     42       8.3681      2.00000
     43       8.3681      2.00000
     44       8.3728      2.00000
     45       8.3728      2.00000
     46       9.3047      2.00000
     47       9.3093      2.00000
     48       9.3093      2.00000
     49       9.3093      2.00000
     50       9.3093      2.00000
     51       9.3138      1.99999
     52      10.5996      0.00000
     53      10.5996      0.00000
     54      10.6009      0.00000
     55      10.6037      0.00000
     56      10.6038      0.00000
     57      10.6038      0.00000
     58      10.6038      0.00000
     59      10.6039      0.00000
     60      10.6040      0.00000
     61      10.6068      0.00000
     62      10.6081      0.00000
     63      10.6081      0.00000
     64      11.2160      0.00000
     65      11.2173      0.00000
     66      11.2173      0.00000
     67      11.2173      0.00000
     68      11.2173      0.00000
     69      11.2187      0.00000
     70      12.5132      0.00000
     71      12.5161      0.00000
     72      12.5165      0.00000

[...]

 k-point  40 :       0.5000    0.5000    0.5000
  band No.  band energies     occupation
      1      -0.8294      2.00000
      2      -0.8247      2.00000
      3      -0.8247      2.00000
      4      -0.8242      2.00000
      5      -0.8241      2.00000
      6      -0.8237      2.00000
      7      -0.8237      2.00000
      8      -0.8190      2.00000
      9       3.9102      2.00000
     10       3.9162      2.00000
     11       3.9162      2.00000
     12       3.9196      2.00000
     13       3.9201      2.00000
     14       3.9202      2.00000
     15       3.9206      2.00000
     16       3.9206      2.00000
     17       3.9207      2.00000
     18       3.9207      2.00000
     19       3.9207      2.00000
     20       3.9207      2.00000
     21       3.9208      2.00000
     22       3.9208      2.00000
     23       3.9208      2.00000
     24       3.9208      2.00000
     25       3.9209      2.00000
     26       3.9209      2.00000
     27       3.9213      2.00000
     28       3.9214      2.00000
     29       3.9218      2.00000
     30       3.9253      2.00000
     31       3.9253      2.00000
     32       3.9313      2.00000
     33       8.5446      2.00000
     34       8.5446      2.00000
     35       8.5471      2.00000
     36       8.5484      2.00000
     37       8.5503      2.00000
     38       8.5507      2.00000
     39       8.5508      2.00000
     40       8.5508      2.00000
     41       8.5511      2.00000
     42       8.5511      2.00000
     43       8.5511      2.00000
     44       8.5511      2.00000
     45       8.5512      2.00000
     46       8.5512      2.00000
     47       8.5512      2.00000
     48       8.5512      2.00000
     49       8.5515      2.00000
     50       8.5515      2.00000
     51       8.5516      2.00000
     52       8.5520      2.00000
     53       8.5539      2.00000
     54       8.5552      2.00000
     55       8.5577      2.00000
     56       8.5577      2.00000
     57      13.0690      0.00000
     58      13.0696      0.00000
     59      13.0696      0.00000
     60      13.0697      0.00000
     61      13.0718      0.00000
     62      13.0720      0.00000
     63      13.0720      0.00000
     64      13.0727      0.00000
     65      13.3501      0.00000
     66      13.3514      0.00000
     67      13.3519      0.00000
     68      13.3524      0.00000
     69      13.3528      0.00000
     70      13.3535      0.00000
     71      13.3541      0.00000
     72      13.3548      0.00000

 soft charge-density along one line, spin component           1
         0         1         2         3         4         5         6         7         8         9
 total charge-density along one line

------------------------ aborting loop because EDIFF is reached ----------------------------------------

  FREE ENERGIE OF THE ION-ELECTRON SYSTEM (eV)
  free  energy   TOTEN  =      -117.587627 eV

  energy  without entropy=     -117.586474  energy(sigma->0) =     -117.587050

  FORCE on cell =-STRESS in cart. coord.  units (eV/reduce length):
  Direction    X        Y        Z        XY       YZ       ZX
  Alpha Z     -7.38     -7.38     -7.38
  Ewald     -817.66   -817.66   -817.66      0.00      0.00      0.00
  Hartree      1.41      1.41      1.41     -0.00     -0.00     -0.00
  E(xc)     -285.70   -285.70   -285.70     -0.00     -0.00      0.00
  Local       27.30     27.30     27.30     -0.00     -0.00      0.00
  n-local    628.44    628.04    628.84     -1.49     -0.46      0.57
  augment    -31.00    -31.00    -31.00      0.00      0.00      0.00
  Kinetic    521.85    515.73    527.96      8.27      2.69     -2.89
  Total       37.24     37.24     37.24      0.00      0.00      0.00
  in kB      128.11    128.11    128.11      0.00      0.00      0.00

 VOLUME and BASIS-vectors are now :
  energy-cutoff  :      500.00
  volume of cell :      465.74
      direct lattice vectors                 reciprocal lattice vectors
     7.751423808  0.000000000  0.000000000     0.129008557  0.000000000  0.000000000
     0.000000000  7.751423808  0.000000000     0.000000000  0.129008557  0.000000000
     0.000000000  0.000000000  7.751423808     0.000000000  0.000000000  0.129008557

  length of vectors
     7.751423808  7.751423808  7.751423808     0.129008557  0.129008557  0.129008557

 FORCES acting on ions
    electron-ion (+dipol)            ewald-force                    non-local-force                 convergence-correction
   0.443E+00 -.786E-13 -.619E-08   -.361E+00 0.000E+00 0.317E-14   -.155E+00 0.116E-19 -.238E-19   -.104E-05 0.822E-15 -.159E-13
   -.930E-01 0.283E-12 -.109E-12   0.954E-01 0.888E-14 0.366E-14   0.169E-02 0.297E-19 0.142E-19   -.407E-06 0.225E-14 -.194E-13
   0.336E-01 0.744E-13 -.867E-13   -.302E-01 0.111E-13 -.339E-15   -.260E-02 -.683E-19 -.335E-19   -.746E-06 -.135E-14 -.149E-13
   -.240E-01 -.368E-12 -.347E-13   0.237E-01 0.111E-13 -.339E-15   0.926E-03 -.416E-19 -.162E-19   0.212E-07 -.295E-14 -.173E-13
   0.336E-01 0.425E-14 -.693E-13   -.302E-01 0.888E-14 -.418E-15   -.260E-02 0.139E-19 0.635E-19   -.737E-06 -.274E-15 0.163E-13
   -.240E-01 -.738E-13 0.986E-14   0.237E-01 0.888E-14 -.418E-15   0.926E-03 0.178E-19 -.280E-19   0.157E-07 0.167E-15 0.198E-13
   0.153E-01 -.162E-13 -.287E-13   -.125E-01 0.107E-13 0.258E-16   -.188E-02 0.371E-19 0.601E-19   -.225E-05 -.242E-15 0.153E-13
   -.111E-01 0.130E-12 0.324E-12   0.117E-01 0.107E-13 0.713E-14   -.818E-03 -.101E-18 0.163E-19   0.221E-05 -.859E-15 0.177E-13
   0.543E-01 -.206E-03 0.206E-03   -.570E-01 0.231E-03 -.231E-03   0.961E-03 0.393E-04 -.393E-04   -.106E-05 0.145E-06 -.145E-06
   -.366E-01 0.870E-04 -.870E-04   0.320E-01 -.692E-04 0.692E-04   0.368E-02 -.355E-04 0.355E-04   0.227E-06 0.817E-07 -.817E-07
   0.543E-01 0.206E-03 0.206E-03   -.570E-01 -.231E-03 -.231E-03   0.961E-03 -.393E-04 -.393E-04   -.106E-05 -.145E-06 -.145E-06
   -.366E-01 -.870E-04 -.870E-04   0.320E-01 0.692E-04 0.692E-04   0.368E-02 0.355E-04 0.355E-04   0.227E-06 -.817E-07 -.817E-07
   0.543E-01 -.206E-03 -.206E-03   -.570E-01 0.231E-03 0.231E-03   0.961E-03 0.393E-04 0.393E-04   -.106E-05 0.145E-06 0.145E-06
   -.366E-01 0.870E-04 0.870E-04   0.320E-01 -.692E-04 -.692E-04   0.368E-02 -.355E-04 -.355E-04   0.227E-06 0.817E-07 0.817E-07
   0.543E-01 0.206E-03 -.206E-03   -.570E-01 -.231E-03 0.231E-03   0.961E-03 -.393E-04 0.393E-04   -.106E-05 -.145E-06 0.145E-06
   -.366E-01 -.870E-04 0.870E-04   0.320E-01 0.692E-04 -.692E-04   0.368E-02 0.355E-04 -.355E-04   0.227E-06 -.817E-07 0.817E-07
   -.546E-01 0.111E-14 0.952E-01   0.461E-01 -.444E-15 -.873E-01   0.180E-01 0.157E-19 -.188E-01   0.617E-06 0.479E-15 -.133E-06
   -.545E-01 -.318E-12 -.962E-01   0.458E-01 0.000E+00 0.881E-01   0.183E-01 0.418E-19 0.193E-01   0.535E-06 0.483E-16 -.194E-06
   -.105E-02 -.124E-13 0.826E-02   0.154E-02 -.133E-14 -.723E-02   -.526E-03 -.345E-19 -.725E-03   0.188E-06 -.121E-14 0.871E-06
   -.850E-03 -.627E-13 -.834E-02   0.139E-02 -.178E-14 0.724E-02   -.524E-03 0.303E-19 0.774E-03   0.232E-06 -.557E-15 -.971E-06
   -.546E-01 -.762E-15 -.952E-01   0.461E-01 -.444E-15 0.873E-01   0.180E-01 0.896E-19 0.188E-01   0.617E-06 0.130E-14 0.133E-06
   -.545E-01 0.633E-13 0.962E-01   0.458E-01 0.000E+00 -.881E-01   0.183E-01 -.331E-19 -.193E-01   0.535E-06 0.128E-14 0.194E-06
   -.105E-02 -.150E-13 -.826E-02   0.154E-02 -.133E-14 0.723E-02   -.526E-03 0.480E-20 0.725E-03   0.188E-06 -.204E-14 -.871E-06
   -.850E-03 0.120E-12 0.834E-02   0.139E-02 -.178E-14 -.724E-02   -.524E-03 0.528E-19 -.774E-03   0.232E-06 -.179E-14 0.971E-06
   -.546E-01 -.952E-01 0.445E-14   0.461E-01 0.873E-01 -.161E-14   0.180E-01 0.188E-01 -.307E-20   0.618E-06 0.129E-06 -.168E-13
   -.545E-01 0.962E-01 0.455E-13   0.458E-01 -.881E-01 -.205E-14   0.183E-01 -.193E-01 -.398E-19   0.536E-06 0.198E-06 -.159E-13
   -.546E-01 0.952E-01 -.601E-15   0.461E-01 -.873E-01 -.205E-14   0.180E-01 -.188E-01 -.955E-20   0.618E-06 -.129E-06 -.177E-13
   -.545E-01 -.962E-01 0.494E-13   0.458E-01 0.881E-01 -.203E-14   0.183E-01 0.193E-01 -.333E-20   0.536E-06 -.198E-06 -.171E-13
   -.105E-02 -.826E-02 -.802E-14   0.154E-02 0.723E-02 -.150E-15   -.526E-03 0.725E-03 0.307E-19   0.187E-06 -.875E-06 0.172E-13
   -.850E-03 0.834E-02 -.831E-13   0.139E-02 -.724E-02 -.325E-14   -.524E-03 -.774E-03 0.811E-20   0.231E-06 0.975E-06 0.163E-13
   -.105E-02 0.826E-02 -.439E-14   0.154E-02 -.723E-02 -.138E-15   -.526E-03 -.725E-03 -.302E-19   0.187E-06 0.875E-06 0.181E-13
   -.850E-03 -.834E-02 0.952E-13   0.139E-02 0.724E-02 -.324E-14   -.524E-03 0.774E-03 -.189E-20   0.231E-06 -.975E-06 0.175E-13
   0.216E-05 0.133E-12 -.619E-08   -.493E-14 0.215E-13 -.515E-14   -.523E-06 0.347E-17 -.374E-18   0.343E-07 -.112E-16 -.399E-16

 POSITION                                       TOTAL-FORCE (eV/Angst)
      1.94786      1.93786      0.00000        -0.073498     -0.000000      0.000000
      5.81357      1.93786      0.00000         0.004083     -0.000000     -0.000000
      1.93786      5.81357      0.00000         0.000774     -0.000000     -0.000000
      5.81357      5.81357      0.00000         0.000605      0.000000      0.000000
      1.93786      1.93786      3.87571         0.000774     -0.000000     -0.000000
      5.81357      1.93786      3.87571         0.000605      0.000000      0.000000
      1.93786      5.81357      3.87571         0.000953     -0.000000     -0.000000
      5.81357      5.81357      3.87571        -0.000291      0.000000      0.000000
      1.93786      0.00000      1.93786        -0.001727      0.000064     -0.000064
      5.81357      0.00000      1.93786        -0.000898     -0.000018      0.000018
      1.93786      3.87571      1.93786        -0.001727     -0.000064     -0.000064
      5.81357      3.87571      1.93786        -0.000898      0.000018      0.000018
      1.93786      0.00000      5.81357        -0.001727      0.000064      0.000064
      5.81357      0.00000      5.81357        -0.000898     -0.000018     -0.000018
      1.93786      3.87571      5.81357        -0.001727     -0.000064      0.000064
      5.81357      3.87571      5.81357        -0.000898      0.000018     -0.000018
      0.00000      1.93786      1.93786         0.009485      0.000000     -0.010891
      3.87571      1.93786      1.93786         0.009655      0.000000      0.011182
      0.00000      5.81357      1.93786        -0.000033     -0.000000      0.000311
      3.87571      5.81357      1.93786         0.000017     -0.000000     -0.000325
      0.00000      1.93786      5.81357         0.009485     -0.000000      0.010891
      3.87571      1.93786      5.81357         0.009655      0.000000     -0.011182
      0.00000      5.81357      5.81357        -0.000033     -0.000000     -0.000311
      3.87571      5.81357      5.81357         0.000017     -0.000000      0.000325
      0.00000      0.00000      0.00000         0.009485      0.010891     -0.000000
      3.87571      0.00000      0.00000         0.009655     -0.011182      0.000000
      0.00000      3.87571      0.00000         0.009485     -0.010891     -0.000000
      3.87571      3.87571      0.00000         0.009655      0.011182      0.000000
      0.00000      0.00000      3.87571        -0.000033     -0.000311     -0.000000
      3.87571      0.00000      3.87571         0.000017      0.000325      0.000000
      0.00000      3.87571      3.87571        -0.000033      0.000311     -0.000000
      3.87571      3.87571      3.87571         0.000017     -0.000325     -0.000000
    total drift:                                0.000002      0.000000     -0.000000

 mean value of Nose-termostat <S>:     1.000 mean value of <T> :     0.000
 mean temperature <T/S>/<1/S>  :     0.000