 vasp.4.6.28 25Jul05 complex
 executed on             LinuxIFC date 2016.11.25  11:40:21

 INCAR:
 POTCAR:   PAW_PBE Ti_pv 07Sep2000
 POTCAR:   PAW_PBE Ti_pv 07Sep2000
   VRHFIN =Ti: d3 s1

   TITEL  = PAW_PBE Ti_pv 07Sep2000
   POMASS =   47.880; ZVAL   =   10.000    mass and valenz
   ENMAX  =  222.338; ENMIN  =  166.753 eV
   QCUT   =   -4.042; QGAM   =    8.085    optimization parameters

   Description
     l     E      TYP  RCUT    TYP  RCUT
     1   .000     23  2.300
     1  -.100     23  2.300
     2   .000     23  2.500
     2   .000     23  2.500
     0   .000     23  2.500
     0  1.500     23  2.500
     3   .000      7   .000

 PAW_PBE Ti_pv 07Sep2000                :

 POSCAR: Ti
  positions in direct lattice

 ion  position               nearest neighbor table
   1  0.112  0.223  0.126-  22 2.87  19 2.87  21 2.88  31 2.88  28 2.89  30 2.89   2 2.93   7 2.94
                             4 2.94   3 2.95   5 2.95   9 2.96
   2  0.444  0.223  0.125-  19 2.88  28 2.88  23 2.88  32 2.88  29 2.88  20 2.88   1 2.93   3 2.94
                             8 2.94   5 2.94   7 2.95   6 2.95
   3  0.777  0.223  0.125-  20 2.88  29 2.88  24 2.88  33 2.88  30 2.88  21 2.88   2 2.94   9 2.94
                             6 2.94   1 2.95   8 2.95   4 2.95
   4  0.111  0.556  0.125-  24 2.88  33 2.88  25 2.88  34 2.88  22 2.88  31 2.88   6 2.94   5 2.94
                             7 2.94   1 2.94   3 2.95   8 2.95
   5  0.444  0.556  0.125-  22 2.88  31 2.88  26 2.88  35 2.88  32 2.88  23 2.88   4 2.94   6 2.94
                             2 2.94   8 2.94   1 2.95   9 2.95
   6  0.777  0.556  0.125-  23 2.88  32 2.88  27 2.88  36 2.88  33 2.88  24 2.88   4 2.94   5 2.94
                             3 2.94   9 2.94   7 2.95   2 2.95
   7  0.111  0.889  0.125-  27 2.88  36 2.88  28 2.88  19 2.88  34 2.88  25 2.88   1 2.94   9 2.94
                             8 2.94   4 2.94   2 2.95   6 2.95
   8  0.444  0.889  0.125-  25 2.88  34 2.88  29 2.88  20 2.88  26 2.88  35 2.88   7 2.94   9 2.94
                             2 2.94   5 2.94   3 2.95   4 2.95
   9  0.777  0.889  0.125-  26 2.88  35 2.88  30 2.88  21 2.88  27 2.88  36 2.88   7 2.94   8 2.94
                             3 2.94   6 2.94   5 2.95   1 2.96
  10  0.111  0.223  0.625-  21 2.88  30 2.88  22 2.88  31 2.88  19 2.88  28 2.88  12 2.94  11 2.94
                            16 2.94  13 2.94  18 2.95  14 2.95
  11  0.444  0.223  0.625-  19 2.88  28 2.88  23 2.88  32 2.88  29 2.88  20 2.88  10 2.94  12 2.94
                            17 2.94  14 2.94  16 2.95  15 2.95
  12  0.777  0.223  0.625-  20 2.88  29 2.88  24 2.88  33 2.88  30 2.88  21 2.88  10 2.94  11 2.94
                            18 2.94  15 2.94  17 2.95  13 2.95
  13  0.111  0.556  0.625-  24 2.88  33 2.88  25 2.88  34 2.88  22 2.88  31 2.88  15 2.94  14 2.94
                            10 2.94  16 2.94  12 2.95  17 2.95
  14  0.444  0.556  0.625-  22 2.88  31 2.88  26 2.88  35 2.88  32 2.88  23 2.88  13 2.94  15 2.94
                            11 2.94  17 2.94  10 2.95  18 2.95
  15  0.777  0.556  0.625-  23 2.88  32 2.88  27 2.88  36 2.88  33 2.88  24 2.88  13 2.94  14 2.94
                            12 2.94  18 2.94  16 2.95  11 2.95
  16  0.111  0.889  0.625-  27 2.88  36 2.88  28 2.88  19 2.88  34 2.88  25 2.88  18 2.94  17 2.94
                            10 2.94  13 2.94  11 2.95  15 2.95
  17  0.444  0.889  0.625-  25 2.88  34 2.88  29 2.88  20 2.88  26 2.88  35 2.88  16 2.94  18 2.94
                            11 2.94  14 2.94  12 2.95  13 2.95
  18  0.777  0.889  0.625-  26 2.88  35 2.88  30 2.88  21 2.88  27 2.88  36 2.88  16 2.94  17 2.94
                            12 2.94  15 2.94  10 2.95  14 2.95
  19  0.223  0.111  0.375-   1 2.87   2 2.88  11 2.88   7 2.88  16 2.88  10 2.88  21 2.94  20 2.94
                            25 2.94  22 2.94  27 2.95  23 2.95
  20  0.556  0.111  0.375-   3 2.88  12 2.88   8 2.88  17 2.88   2 2.88  11 2.88  19 2.94  21 2.94
                            26 2.94  23 2.94  25 2.95  24 2.95
  21  0.889  0.111  0.375-   1 2.88  10 2.88   9 2.88  18 2.88  12 2.88   3 2.88  19 2.94  20 2.94
                            27 2.94  24 2.94  26 2.95  22 2.95
  22  0.223  0.444  0.375-   1 2.87   5 2.88  14 2.88  10 2.88  13 2.88   4 2.88  24 2.94  23 2.94
                            19 2.94  25 2.94  21 2.95  26 2.95
  23  0.556  0.444  0.375-   6 2.88  15 2.88  11 2.88   2 2.88  14 2.88   5 2.88  22 2.94  24 2.94
                            20 2.94  26 2.94  19 2.95  27 2.95
  24  0.889  0.444  0.375-   4 2.88  13 2.88  12 2.88   3 2.88   6 2.88  15 2.88  22 2.94  23 2.94
                            21 2.94  27 2.94  25 2.95  20 2.95
  25  0.223  0.777  0.375-   8 2.88  17 2.88  13 2.88   4 2.88  16 2.88   7 2.88  27 2.94  26 2.94
                            19 2.94  22 2.94  20 2.95  24 2.95
  26  0.556  0.777  0.375-   9 2.88  18 2.88  14 2.88   5 2.88  17 2.88   8 2.88  25 2.94  27 2.94
                            20 2.94  23 2.94  21 2.95  22 2.95
  27  0.889  0.777  0.375-   7 2.88  16 2.88  15 2.88   6 2.88   9 2.88  18 2.88  25 2.94  26 2.94
                            21 2.94  24 2.94  19 2.95  23 2.95
  28  0.223  0.111  0.875-   2 2.88  11 2.88   7 2.88  16 2.88  10 2.88   1 2.89  30 2.94  29 2.94
                            34 2.94  31 2.94  36 2.95  32 2.95
  29  0.556  0.111  0.875-   3 2.88  12 2.88   8 2.88  17 2.88   2 2.88  11 2.88  28 2.94  30 2.94
                            35 2.94  32 2.94  34 2.95  33 2.95
  30  0.889  0.111  0.875-  10 2.88   9 2.88  18 2.88  12 2.88   3 2.88   1 2.89  28 2.94  29 2.94
                            36 2.94  33 2.94  35 2.95  31 2.95
  31  0.223  0.444  0.875-   5 2.88  14 2.88  10 2.88  13 2.88   4 2.88   1 2.88  33 2.94  32 2.94
                            28 2.94  34 2.94  30 2.95  35 2.95
  32  0.556  0.444  0.875-   6 2.88  15 2.88  11 2.88   2 2.88  14 2.88   5 2.88  31 2.94  33 2.94
                            29 2.94  35 2.94  28 2.95  36 2.95
  33  0.889  0.444  0.875-   4 2.88  13 2.88  12 2.88   3 2.88   6 2.88  15 2.88  31 2.94  32 2.94
                            30 2.94  36 2.94  34 2.95  29 2.95
  34  0.223  0.777  0.875-   8 2.88  17 2.88  13 2.88   4 2.88  16 2.88   7 2.88  36 2.94  35 2.94
                            28 2.94  31 2.94  29 2.95  33 2.95
  35  0.556  0.777  0.875-   9 2.88  18 2.88  14 2.88   5 2.88  17 2.88   8 2.88  34 2.94  36 2.94
                            29 2.94  32 2.94  30 2.95  31 2.95
  36  0.889  0.777  0.875-   7 2.88  16 2.88  15 2.88   6 2.88   9 2.88  18 2.88  34 2.94  35 2.94
                            30 2.94  33 2.94  28 2.95  32 2.95

  LATTYP: Found a base centered orthorhombic cell.
 ALAT       =     8.8635622795
 B/A-ratio  =     1.7208744689
 C/A-ratio  =     1.0491886802

  Lattice vectors:

 A1 = (   8.8206670999,   0.0247654402,   0.0000000000)
 A2 = (  -4.3888858705,   7.6513046101,   0.0000000000)
 A3 = (   0.0000000000,   0.0000000000,   9.2995492100)
 Subroutine PRICEL returns:
 Original cell was already a primitive cell.

Analysis of symmetry for initial positions (statically):

 Routine SETGRP: Setting up the symmetry group for a
 base centered orthorhombic supercell.

 Subroutine GETGRP returns: Found  1 space group operations
 (whereof  1 operations were pure point group operations)
 out of a pool of  8 trial point group operations.

The static configuration has the point symmetry C_1 .

Analysis of symmetry for dynamics (positions and initial velocities):

 Subroutine DYNSYM returns: Found  1 space group operations
 (whereof  1 operations were pure point group operations)
 out of a pool of  1 trial space group operations
 (whereof  1 operations were pure point group operations)
 and found also     1 'primitive' translations

The dynamic configuration has the point symmetry C_1 .

 KPOINTS: Automatic mesh

Automatic generation of k-mesh.
 generate k-points for:   7   7   5

 Subroutine IBZKPT returns following result:

 Found    123 irreducible k-points:

 Following reciprocal coordinates:
            Coordinates               Weight
  0.000000  0.000000  0.000000      1.000000
  0.142857 -0.000000  0.000000      2.000000
  0.285714  0.000000  0.000000      2.000000
  0.428571 -0.000000  0.000000      2.000000
  0.000000  0.142857  0.000000      2.000000
  0.142857  0.142857  0.000000      2.000000
  0.285714  0.142857  0.000000      2.000000
  0.428571  0.142857  0.000000      2.000000
 -0.428571  0.142857  0.000000      2.000000
 -0.285714  0.142857  0.000000      2.000000
 -0.142857  0.142857  0.000000      2.000000
  0.000000  0.285714  0.000000      2.000000
  0.142857  0.285714  0.000000      2.000000
  0.285714  0.285714  0.000000      2.000000
  0.428571  0.285714  0.000000      2.000000
 -0.428571  0.285714  0.000000      2.000000
 -0.285714  0.285714  0.000000      2.000000
 -0.142857  0.285714  0.000000      2.000000
  0.000000  0.428571  0.000000      2.000000
  0.142857  0.428571  0.000000      2.000000
  0.285714  0.428571  0.000000      2.000000
  0.428571  0.428571  0.000000      2.000000
 -0.428571  0.428571  0.000000      2.000000
 -0.285714  0.428571  0.000000      2.000000
 -0.142857  0.428571  0.000000      2.000000
  0.000000  0.000000  0.200000      2.000000
  0.142857 -0.000000  0.200000      2.000000
  0.285714  0.000000  0.200000      2.000000
  0.428571 -0.000000  0.200000      2.000000
 -0.428571  0.000000  0.200000      2.000000
 -0.285714  0.000000  0.200000      2.000000
 -0.142857  0.000000  0.200000      2.000000
  0.000000  0.142857  0.200000      2.000000
  0.142857  0.142857  0.200000      2.000000
  0.285714  0.142857  0.200000      2.000000
  0.428571  0.142857  0.200000      2.000000
 -0.428571  0.142857  0.200000      2.000000
 -0.285714  0.142857  0.200000      2.000000
 -0.142857  0.142857  0.200000      2.000000
  0.000000  0.285714  0.200000      2.000000
  0.142857  0.285714  0.200000      2.000000
  0.285714  0.285714  0.200000      2.000000
  0.428571  0.285714  0.200000      2.000000
 -0.428571  0.285714  0.200000      2.000000
 -0.285714  0.285714  0.200000      2.000000
 -0.142857  0.285714  0.200000      2.000000
  0.000000  0.428571  0.200000      2.000000
  0.142857  0.428571  0.200000      2.000000
  0.285714  0.428571  0.200000      2.000000
  0.428571  0.428571  0.200000      2.000000
 -0.428571  0.428571  0.200000      2.000000
 -0.285714  0.428571  0.200000      2.000000
 -0.142857  0.428571  0.200000      2.000000
  0.000000 -0.428571  0.200000      2.000000
  0.142857 -0.428571  0.200000      2.000000
  0.285714 -0.428571  0.200000      2.000000
  0.428571 -0.428571  0.200000      2.000000
 -0.428571 -0.428571  0.200000      2.000000
 -0.285714 -0.428571  0.200000      2.000000
 -0.142857 -0.428571  0.200000      2.000000
[...]
 -0.142857 -0.428571  0.400000      2.000000
 -0.000000 -0.285714  0.400000      2.000000
  0.142857 -0.285714  0.400000      2.000000
  0.285714 -0.285714  0.400000      2.000000
  0.428571 -0.285714  0.400000      2.000000
 -0.428571 -0.285714  0.400000      2.000000
 -0.285714 -0.285714  0.400000      2.000000
 -0.142857 -0.285714  0.400000      2.000000
  0.000000 -0.142857  0.400000      2.000000
[...]

 Free energy of the ion-electron system (eV)
  alpha Z        PSCENC =      2248.03169769
  Ewald energy   TEWEN  =    -28849.98002699
  -1/2 Hartree   DENC   =     -7092.84910864
  -V(xc)+E(xc)   XCENC  =      1245.53712645
  PAW double counting   =     25597.78490989   -25698.54131395
  entropy T*S    EENTRO =        -0.00227709
  eigenvalues    EBANDS =     -5259.54346797
  atomic energy  EATOM  =     37525.52423787
  free energy    TOTEN  =      -284.03822274 eV

  energy without entropy =     -284.03594565  energy(sigma->0) =     -284.03708419

 average (electrostatic) potential at core
  the test charge radii are     1.0397
  (the norm of the test charge is              1.0000)
       1 -51.1623       2 -51.1613       3 -51.1635       4 -51.1631       5 -51.1618
       6 -51.1624       7 -51.1620       8 -51.1624       9 -51.1627      10 -51.1624
      11 -51.1626      12 -51.1622      13 -51.1624      14 -51.1625      15 -51.1624
      16 -51.1625      17 -51.1624      18 -51.1623      19 -51.1602      20 -51.1623
      21 -51.1625      22 -51.1614      23 -51.1626      24 -51.1622      25 -51.1624
      26 -51.1622      27 -51.1624      28 -51.1623      29 -51.1625      30 -51.1645
      31 -51.1635      32 -51.1626      33 -51.1622      34 -51.1627      35 -51.1624
      36 -51.1624

 E-fermi :   5.8701     XC(G=0): -11.3775     alpha+bet :-13.6149
   add alpha+bet to get absolut eigen values

 k-point   1 :       0.0000    0.0000    0.0000
  band No.  band energies     occupation
      1     -27.5800      2.00000
      2     -27.3900      2.00000
      3     -27.3899      2.00000
      4     -27.3899      2.00000
      5     -27.3897      2.00000
      6     -27.3838      2.00000
      7     -27.3836      2.00000
      8     -27.3835      2.00000
      9     -27.3835      2.00000
     10     -27.3834      2.00000
     11     -27.3834      2.00000
     12     -27.3833      2.00000
     13     -27.3833      2.00000
     14     -27.3832      2.00000
     15     -27.3832      2.00000
     16     -27.3831      2.00000
     17     -27.3829      2.00000
     18     -27.3829      2.00000
     19     -27.3827      2.00000
     20     -27.3809      2.00000
     21     -27.3808      2.00000
     22     -27.3806      2.00000
     23     -27.3805      2.00000
     24     -27.3133      2.00000
     25     -27.3129      2.00000
     26     -27.2841      2.00000
     27     -27.2839      2.00000
     28     -27.2826      2.00000
     29     -27.2825      2.00000
     30     -27.2825      2.00000
     31     -27.2823      2.00000
     32     -27.2394      2.00000
     33     -27.2388      2.00000
     34     -27.2051      2.00000
     35     -27.2048      2.00000
     36     -27.2033      2.00000
     37     -27.2030      2.00000
     38     -27.2009      2.00000
     39     -27.2006      2.00000
     40     -27.2005      2.00000
     41     -27.2002      2.00000
     42     -27.1737      2.00000
     43     -27.1735      2.00000
     44     -27.1734      2.00000
     45     -27.1734      2.00000
     46     -27.1732      2.00000
     47     -27.1731      2.00000
     48     -27.1617      2.00000
     49     -27.1612      2.00000
     50     -27.1577      2.00000
     51     -27.1574      2.00000
     52     -27.0859      2.00000
     53     -27.0855      2.00000
     54     -27.0524      2.00000
     55     -27.0524      2.00000
     56     -27.0427      2.00000
     57     -27.0426      2.00000
     58     -27.0425      2.00000
     59     -27.0424      2.00000
     60     -27.0303      2.00000
[...]
    202       6.5117      0.00000
    203       6.5558      0.00000
    204       6.5559      0.00000
    205       6.5622      0.00000
    206       6.5629      0.00000
    207       6.5634      0.00000
    208       6.5635      0.00000
    209       6.5805      0.00000
    210       6.6616      0.00000
    211       6.6625      0.00000
    212       6.6643      0.00000
    213       6.6666      0.00000
    214       6.6713      0.00000
    215       6.6757      0.00000
    216       6.6782      0.00000

[...]

 k-point 123 :      -0.1429   -0.1429    0.4000
  band No.  band energies     occupation
      1     -27.5052      2.00000
      2     -27.4502      2.00000
      3     -27.4501      2.00000
      4     -27.4347      2.00000
      5     -27.4292      2.00000
      6     -27.4291      2.00000
      7     -27.4286      2.00000
      8     -27.4285      2.00000
      9     -27.4133      2.00000
     10     -27.4131      2.00000
     11     -27.4060      2.00000
     12     -27.4057      2.00000
     13     -27.4050      2.00000
     14     -27.4050      2.00000
     15     -27.3978      2.00000
     16     -27.3784      2.00000
     17     -27.3719      2.00000
     18     -27.3571      2.00000
     19     -27.3570      2.00000
     20     -27.3541      2.00000
     21     -27.3486      2.00000
     22     -27.3410      2.00000
     23     -27.3262      2.00000
     24     -27.3088      2.00000
     25     -27.3086      2.00000
     26     -27.2992      2.00000
     27     -27.2974      2.00000
     28     -27.2972      2.00000
     29     -27.2587      2.00000
     30     -27.2583      2.00000
     31     -27.2436      2.00000
     32     -27.2276      2.00000
     33     -27.2215      2.00000
     34     -27.2200      2.00000
     35     -27.2123      2.00000
     36     -27.2122      2.00000
     37     -27.1976      2.00000
     38     -27.1975      2.00000
     39     -27.1788      2.00000
     40     -27.1783      2.00000
     41     -27.1705      2.00000
     42     -27.1701      2.00000
     43     -27.1357      2.00000
     44     -27.1355      2.00000
     45     -27.1309      2.00000
     46     -27.1305      2.00000
     47     -27.1254      2.00000
     48     -27.1251      2.00000
     49     -27.1154      2.00000
     50     -27.1135      2.00000
     51     -27.1075      2.00000
     52     -27.0974      2.00000
     53     -27.0973      2.00000
     54     -27.0877      2.00000
     55     -27.0854      2.00000
     56     -27.0574      2.00000
     57     -27.0573      2.00000
     58     -27.0572      2.00000
     59     -27.0537      2.00000
     60     -27.0536      2.00000
[...]
    202       6.5849      0.00000
    203       6.6075      0.00000
    204       6.6089      0.00000
    205       6.6097      0.00000
    206       6.6445      0.00000
    207       6.6748      0.00000
    208       6.6757      0.00000
    209       6.7018      0.00000
    210       6.7026      0.00000
    211       6.7208      0.00000
    212       6.7215      0.00000
    213       6.7950      0.00000
    214       6.8013      0.00000
    215       6.8165      0.00000
    216       6.8381      0.00000

 soft charge-density along one line, spin component           1
         0         1         2         3         4         5         6         7         8         9
 total charge-density along one line

------------------------ aborting loop because EDIFF is reached ----------------------------------------

  FREE ENERGIE OF THE ION-ELECTRON SYSTEM (eV)
  free  energy   TOTEN  =      -284.038223 eV

  energy  without entropy=     -284.035946  energy(sigma->0) =     -284.037084

  FORCE on cell =-STRESS in cart. coord.  units (eV/reduce length):
  Direction    X        Y        Z        XY       YZ       ZX
  Alpha Z   2248.03   2248.03   2248.03
  Ewald    -9745.07  -9757.69  -9347.32    -11.41     -0.00     -0.01
  Hartree   2311.01   2305.21   2476.64     -5.26     -0.00     -0.00
  E(xc)    -1694.57  -1694.57  -1694.12     -0.00      0.00     -0.00
  Local     2548.71   2566.93   2040.45     16.49      0.00      0.01
  n-local   -863.09   -862.89   -846.37      0.17     -0.00     -0.00
  augment   1840.02   1839.78   1813.38     -0.21     -0.00      0.00
  Kinetic   3352.37   3351.83   3307.65     -0.47     -0.00      0.00
  Total       -2.60     -3.37     -1.66     -0.69     -0.00      0.00
  in kB       -6.62     -8.60     -4.22     -1.76     -0.00      0.00

 VOLUME and BASIS-vectors are now :
  energy-cutoff  :      500.00
  volume of cell :      628.63
      direct lattice vectors                 reciprocal lattice vectors
     8.820667100  0.024765440  0.000000000     0.113187820  0.064925977  0.000000000
    -4.388885871  7.651304610  0.000000000    -0.000366362  0.130486516  0.000000000
     0.000000000  0.000000000  9.299549210     0.000000000  0.000000000  0.107532094

  length of vectors
     8.820701866  8.820701867  9.299549210     0.130487030  0.130487030  0.107532094

 FORCES acting on ions
    electron-ion (+dipol)            ewald-force                    non-local-force                 convergence-correction
   0.237E+01 -.898E-01 0.251E+01   -.237E+01 0.662E-01 -.256E+01   -.459E-01 0.237E-01 0.417E-02   0.313E-04 -.149E-05 0.994E-06
   -.738E+00 -.995E-01 0.406E+00   0.783E+00 0.699E-01 -.403E+00   -.357E-01 0.252E-01 -.588E-03   -.106E-04 -.252E-05 -.213E-05
   -.736E+00 -.892E-01 0.401E+00   0.781E+00 0.699E-01 -.398E+00   -.350E-01 0.225E-01 -.759E-03   -.211E-04 0.109E-04 -.183E-04
   0.177E+00 0.431E+00 0.402E+00   -.135E+00 -.458E+00 -.399E+00   -.385E-01 0.193E-01 -.762E-03   -.620E-05 0.943E-05 -.155E-04
   0.172E+00 -.608E+00 0.398E+00   -.130E+00 0.587E+00 -.396E+00   -.382E-01 0.280E-01 -.787E-03   0.101E-04 -.985E-05 -.948E-05
   -.762E-02 -.919E-01 0.142E+00   0.514E-01 0.675E-01 -.144E+00   -.410E-01 0.238E-01 0.321E-02   -.412E-05 0.996E-06 -.127E-04
   0.184E+00 0.433E+00 0.404E+00   -.139E+00 -.456E+00 -.402E+00   -.416E-01 0.227E-01 -.574E-03   0.279E-05 0.846E-05 -.305E-05
   -.728E-02 -.908E-01 0.144E+00   0.514E-01 0.664E-01 -.144E+00   -.411E-01 0.240E-01 0.132E-02   -.147E-04 0.399E-05 -.186E-04
   0.171E+00 -.615E+00 0.396E+00   -.127E+00 0.589E+00 -.393E+00   -.414E-01 0.254E-01 -.768E-03   0.117E-04 -.193E-04 -.131E-04
   0.272E+00 -.911E-01 -.438E+00   -.232E+00 0.667E-01 0.453E+00   -.411E-01 0.237E-01 -.162E-02   0.155E-04 0.106E-05 -.681E-06
   0.103E+00 -.901E-01 -.198E+00   -.596E-01 0.675E-01 0.199E+00   -.414E-01 0.231E-01 -.124E-02   -.413E-05 -.105E-05 0.222E-05
   0.103E+00 -.935E-01 -.197E+00   -.598E-01 0.675E-01 0.198E+00   -.413E-01 0.246E-01 -.131E-02   -.116E-04 0.858E-05 0.183E-04
   0.181E+00 -.461E-01 -.197E+00   -.138E+00 0.228E-01 0.198E+00   -.416E-01 0.229E-01 -.133E-02   -.474E-05 0.177E-05 0.153E-04
   0.179E+00 -.137E+00 -.196E+00   -.136E+00 0.112E+00 0.197E+00   -.413E-01 0.246E-01 -.144E-02   0.423E-05 -.172E-05 0.944E-05
   0.115E+00 -.918E-01 -.124E+00   -.746E-01 0.675E-01 0.121E+00   -.403E-01 0.237E-01 0.276E-02   0.238E-06 0.110E-05 0.126E-04
   0.180E+00 -.488E-01 -.198E+00   -.138E+00 0.225E-01 0.199E+00   -.414E-01 0.245E-01 -.124E-02   -.128E-05 0.291E-05 0.305E-05
   0.116E+00 -.915E-01 -.121E+00   -.746E-01 0.672E-01 0.121E+00   -.405E-01 0.239E-01 -.802E-03   -.346E-05 0.113E-05 0.186E-04
   0.179E+00 -.134E+00 -.196E+00   -.136E+00 0.111E+00 0.197E+00   -.414E-01 0.233E-01 -.144E-02   0.461E-05 -.132E-04 0.130E-04
   -.643E+00 0.577E+00 -.981E+00   0.609E+00 -.558E+00 0.982E+00   0.441E-01 -.251E-01 0.998E-02   0.940E-05 0.286E-05 -.894E-05
   -.374E+00 0.110E+00 -.183E-01   0.332E+00 -.863E-01 0.187E-01   0.401E-01 -.237E-01 -.601E-03   -.282E-04 0.611E-05 -.239E-05
   0.384E+00 0.204E+00 -.168E-03   -.427E+00 -.180E+00 0.214E-02   0.401E-01 -.248E-01 -.366E-02   0.193E-04 -.201E-05 0.480E-05
   0.192E+00 -.505E+00 -.498E+00   -.234E+00 0.536E+00 0.500E+00   0.419E-01 -.217E-01 0.300E-02   0.175E-04 -.738E-05 0.323E-06
   -.437E+00 -.102E+00 -.170E+00   0.397E+00 0.128E+00 0.175E+00   0.363E-01 -.257E-01 -.640E-02   -.593E-05 -.108E-04 -.712E-05
   -.161E+00 0.128E+00 0.821E-01   0.121E+00 -.104E+00 -.834E-01   0.391E-01 -.230E-01 0.184E-02   -.112E-04 0.118E-04 0.197E-05
   -.201E+00 0.189E+00 -.337E-01   0.159E+00 -.165E+00 0.351E-01   0.412E-01 -.233E-01 -.155E-02   -.129E-04 0.124E-04 -.307E-05
   -.171E+00 -.256E-01 -.356E-02   0.129E+00 0.505E-01 0.293E-02   0.418E-01 -.247E-01 0.391E-03   0.297E-05 -.134E-04 0.134E-05
   -.100E+00 0.248E+00 -.438E-01   0.585E-01 -.223E+00 0.455E-01   0.398E-01 -.226E-01 -.218E-02   0.101E-04 0.379E-06 -.349E-05
   0.381E+00 -.168E-01 -.267E-02   -.424E+00 0.412E-01 0.419E-02   0.398E-01 -.226E-01 -.342E-02   0.145E-04 -.387E-05 0.881E-05
   -.373E+00 0.707E-01 -.191E-01   0.332E+00 -.462E-01 0.196E-01   0.402E-01 -.243E-01 -.656E-03   -.104E-04 0.195E-05 0.226E-05
   -.635E+00 -.394E+00 -.979E+00   0.601E+00 0.423E+00 0.980E+00   0.441E-01 -.224E-01 0.101E-01   -.439E-05 -.320E-05 -.474E-05
   0.197E+00 0.679E+00 -.488E+00   -.240E+00 -.660E+00 0.489E+00   0.418E-01 -.261E-01 0.335E-02   0.361E-05 0.100E-04 -.367E-06
   -.166E+00 0.556E-01 0.790E-01   0.126E+00 -.302E-01 -.804E-01   0.385E-01 -.243E-01 0.197E-02   0.729E-05 0.101E-06 0.735E-05
   -.439E+00 0.288E+00 -.176E+00   0.398E+00 -.264E+00 0.181E+00   0.373E-01 -.219E-01 -.599E-02   -.109E-04 0.969E-05 -.194E-05
   -.167E+00 0.209E+00 -.369E-02   0.125E+00 -.185E+00 0.321E-02   0.417E-01 -.231E-01 0.273E-03   -.337E-05 0.245E-05 0.320E-05
   -.203E+00 -.637E-02 -.332E-01   0.161E+00 0.309E-01 0.344E-01   0.412E-01 -.243E-01 -.138E-02   -.215E-05 -.529E-05 -.130E-05
   -.102E+00 -.638E-01 -.468E-01   0.601E-01 0.883E-01 0.485E-01   0.397E-01 -.251E-01 -.224E-02   0.569E-05 -.121E-04 0.353E-05
   0.119E-03 -.158E-03 0.173E-04   -.176E-12 0.438E-12 0.279E-12   -.229E-03 0.116E-03 -.363E-03   -.737E-06 0.900E-06 0.275E-06

 POSITION                                       TOTAL-FORCE (eV/Angst)
      0.00679      1.70587      1.16970        -0.043023      0.000089     -0.046630
      2.94013      1.71410      1.16244         0.010004     -0.004413      0.001845
      5.88035      1.72236      1.16244         0.009886      0.003238      0.001849
     -1.46305      4.25628      1.16244         0.003759     -0.008104      0.001843
      1.47717      4.26454      1.16244         0.003593      0.006863      0.001709
      4.41739      4.27279      1.16244         0.002819     -0.000572      0.000849
     -2.92602      6.80672      1.16244         0.003734     -0.000132      0.001835
      0.01421      6.81497      1.16244         0.002974     -0.000405      0.000846
      2.95443      6.82323      1.16244         0.003519     -0.001017      0.001711
     -0.00009      1.70585      5.81222        -0.001434     -0.000724      0.013247
      2.94013      1.71410      5.81222         0.001997      0.000473     -0.000213
      5.88035      1.72236      5.81222         0.002074     -0.001435     -0.000199
     -1.46305      4.25628      5.81222         0.001013     -0.000285     -0.000208
      1.47717      4.26454      5.81222         0.001171     -0.000807     -0.000244
      4.41739      4.27279      5.81222         0.000250     -0.000606     -0.000988
     -2.92602      6.80672      5.81222         0.001012     -0.001863     -0.000213
      0.01421      6.81497      5.81222         0.000405     -0.000419     -0.000988
      2.95443      6.82323      5.81222         0.001086      0.001097     -0.000238
      1.47735      0.85284      3.48733         0.010663     -0.006026      0.011106
      4.41757      0.86110      3.48733        -0.001224      0.000114     -0.000182
      7.35780      0.86935      3.48733        -0.002862     -0.000914     -0.001678
      0.01439      3.40328      3.48733        -0.000605      0.008402      0.004894
      2.95461      3.41153      3.48733        -0.003716     -0.000250     -0.001460
      5.89483      3.41979      3.48733        -0.001093      0.000329      0.000575
     -1.44857      5.95371      3.48733        -0.000534      0.000795     -0.000118
      1.49165      5.96197      3.48733        -0.000603      0.000204     -0.000230
      4.43187      5.97022      3.48733        -0.002182      0.001777     -0.000422
      1.47735      0.85284      8.13711        -0.002996      0.001885     -0.001877
      4.41757      0.86110      8.13711        -0.001163      0.000271     -0.000116
      7.35780      0.86935      8.13711         0.010434      0.006798      0.010905
      0.01439      3.40328      8.13711        -0.000617     -0.007141      0.004614
      2.95461      3.41153      8.13711        -0.001644      0.001044      0.000509
      5.89483      3.41979      8.13711        -0.003211      0.001550     -0.001428
     -1.44857      5.95371      8.13711        -0.000630      0.000662     -0.000191
      1.49165      5.96197      8.13711        -0.000587      0.000187     -0.000196
      4.43187      5.97022      8.13711        -0.002269     -0.000663     -0.000517
    total drift:                               -0.000110     -0.000042     -0.000345

 mean value of Nose-termostat <S>:     1.000 mean value of <T> :     0.000
 mean temperature <T/S>/<1/S>  :     0.000