 vasp.4.6.28 25Jul05 complex
 executed on             LinuxIFC date 2017.01.11  09:11:08

 INCAR:
 POTCAR:   PAW_PBE Ag 06Sep2000
 POTCAR:   PAW_PBE Ag 06Sep2000
   VRHFIN =Ag : s1 d10

   TITEL  = PAW_PBE Ag 06Sep2000
   POMASS =  107.868; ZVAL   =   11.000    mass and valenz
   ENMAX  =  249.846; ENMIN  =  187.385 eV
   QCUT   =   -4.285; QGAM   =    8.570    optimization parameters

   Description
     l     E      TYP  RCUT    TYP  RCUT
     2   .000     23  2.400
     2   .000     23  2.400
     0   .000     23  2.400
     0   .000     23  2.400
     1  -.200     23  2.400
     1  1.500     23  2.400
     3   .000      7   .000

 PAW_PBE Ag 06Sep2000                   :

 POSCAR: Ag
  positions in direct lattice

 ion  position               nearest neighbor table
   1  0.001  0.000  0.000-   9 2.94  11 2.94  17 2.94  21 2.94  25 2.94  27 2.94  29 2.94  31 2.94
                            10 2.95  18 2.95  12 2.95  22 2.95
   2  0.500  0.000  0.000-   9 2.94  10 2.94  11 2.94  12 2.94  17 2.94  18 2.94  21 2.94  22 2.94
                            26 2.94  28 2.94  30 2.94  32 2.94
   3  0.000  0.500  0.000-   9 2.94  10 2.94  11 2.94  12 2.94  19 2.94  20 2.94  23 2.94  24 2.94
                            25 2.94  27 2.94  29 2.94  31 2.94
   4  0.500  0.500  0.000-   9 2.94  10 2.94  11 2.94  12 2.94  19 2.94  20 2.94  23 2.94  24 2.94
                            26 2.94  28 2.94  30 2.94  32 2.94
   5  0.000  0.000  0.500-  13 2.94  14 2.94  15 2.94  16 2.94  17 2.94  18 2.94  21 2.94  22 2.94
                            25 2.94  27 2.94  29 2.94  31 2.94
   6  0.500  0.000  0.500-  13 2.94  14 2.94  15 2.94  16 2.94  17 2.94  18 2.94  21 2.94  22 2.94
                            26 2.94  28 2.94  30 2.94  32 2.94
   7  0.000  0.500  0.500-  13 2.94  14 2.94  15 2.94  16 2.94  19 2.94  20 2.94  23 2.94  24 2.94
                            25 2.94  27 2.94  29 2.94  31 2.94
   8  0.500  0.500  0.500-  13 2.94  14 2.94  15 2.94  16 2.94  19 2.94  20 2.94  23 2.94  24 2.94
                            26 2.94  28 2.94  30 2.94  32 2.94
   9  0.250  0.250  0.000-   1 2.94   2 2.94   3 2.94   4 2.94  17 2.94  19 2.94  21 2.94  23 2.94
                            25 2.94  26 2.94  29 2.94  30 2.94
  10  0.750  0.250  0.000-   2 2.94   3 2.94   4 2.94  18 2.94  20 2.94  22 2.94  24 2.94  25 2.94
                            26 2.94  29 2.94  30 2.94   1 2.95
  11  0.250  0.750  0.000-   1 2.94   2 2.94   3 2.94   4 2.94  17 2.94  19 2.94  21 2.94  23 2.94
                            27 2.94  28 2.94  31 2.94  32 2.94
  12  0.750  0.750  0.000-   2 2.94   3 2.94   4 2.94  18 2.94  20 2.94  22 2.94  24 2.94  27 2.94
                            28 2.94  31 2.94  32 2.94   1 2.95
  13  0.250  0.250  0.500-   5 2.94   6 2.94   7 2.94   8 2.94  17 2.94  19 2.94  21 2.94  23 2.94
                            25 2.94  26 2.94  29 2.94  30 2.94
  14  0.750  0.250  0.500-   5 2.94   6 2.94   7 2.94   8 2.94  18 2.94  20 2.94  22 2.94  24 2.94
                            25 2.94  26 2.94  29 2.94  30 2.94
  15  0.250  0.750  0.500-   5 2.94   6 2.94   7 2.94   8 2.94  17 2.94  19 2.94  21 2.94  23 2.94
                            27 2.94  28 2.94  31 2.94  32 2.94
  16  0.750  0.750  0.500-   5 2.94   6 2.94   7 2.94   8 2.94  18 2.94  20 2.94  22 2.94  24 2.94
                            27 2.94  28 2.94  31 2.94  32 2.94
  17  0.250  0.000  0.250-   1 2.94   2 2.94   5 2.94   6 2.94   9 2.94  11 2.94  13 2.94  15 2.94
                            25 2.94  26 2.94  27 2.94  28 2.94
  18  0.750  0.000  0.250-   2 2.94   5 2.94   6 2.94  10 2.94  12 2.94  14 2.94  16 2.94  25 2.94
                            26 2.94  27 2.94  28 2.94   1 2.95
  19  0.250  0.500  0.250-   3 2.94   4 2.94   7 2.94   8 2.94   9 2.94  11 2.94  13 2.94  15 2.94
                            25 2.94  26 2.94  27 2.94  28 2.94
  20  0.750  0.500  0.250-   3 2.94   4 2.94   7 2.94   8 2.94  10 2.94  12 2.94  14 2.94  16 2.94
                            25 2.94  26 2.94  27 2.94  28 2.94
  21  0.250  0.000  0.750-   1 2.94   2 2.94   5 2.94   6 2.94   9 2.94  11 2.94  13 2.94  15 2.94
                            29 2.94  30 2.94  31 2.94  32 2.94
  22  0.750  0.000  0.750-   2 2.94   5 2.94   6 2.94  10 2.94  12 2.94  14 2.94  16 2.94  29 2.94
                            30 2.94  31 2.94  32 2.94   1 2.95
  23  0.250  0.500  0.750-   3 2.94   4 2.94   7 2.94   8 2.94   9 2.94  11 2.94  13 2.94  15 2.94
                            29 2.94  30 2.94  31 2.94  32 2.94
  24  0.750  0.500  0.750-   3 2.94   4 2.94   7 2.94   8 2.94  10 2.94  12 2.94  14 2.94  16 2.94
                            29 2.94  30 2.94  31 2.94  32 2.94
  25  0.000  0.250  0.250-   3 2.94   5 2.94   7 2.94   9 2.94  10 2.94  13 2.94  14 2.94  17 2.94
                            18 2.94  19 2.94  20 2.94   1 2.94
  26  0.500  0.250  0.250-   2 2.94   4 2.94   6 2.94   8 2.94   9 2.94  10 2.94  13 2.94  14 2.94
                            17 2.94  18 2.94  19 2.94  20 2.94
  27  0.000  0.750  0.250-   3 2.94   5 2.94   7 2.94  11 2.94  12 2.94  15 2.94  16 2.94  17 2.94
                            18 2.94  19 2.94  20 2.94   1 2.94
  28  0.500  0.750  0.250-   2 2.94   4 2.94   6 2.94   8 2.94  11 2.94  12 2.94  15 2.94  16 2.94
                            17 2.94  18 2.94  19 2.94  20 2.94
  29  0.000  0.250  0.750-   3 2.94   5 2.94   7 2.94   9 2.94  10 2.94  13 2.94  14 2.94  21 2.94
                            22 2.94  23 2.94  24 2.94   1 2.94
  30  0.500  0.250  0.750-   2 2.94   4 2.94   6 2.94   8 2.94   9 2.94  10 2.94  13 2.94  14 2.94
                            21 2.94  22 2.94  23 2.94  24 2.94
  31  0.000  0.750  0.750-   3 2.94   5 2.94   7 2.94  11 2.94  12 2.94  15 2.94  16 2.94  21 2.94
                            22 2.94  23 2.94  24 2.94   1 2.94
  32  0.500  0.750  0.750-   2 2.94   4 2.94   6 2.94   8 2.94  11 2.94  12 2.94  15 2.94  16 2.94
                            21 2.94  22 2.94  23 2.94  24 2.94

  LATTYP: Found a simple cubic cell.
 ALAT       =     8.3264495632

  Lattice vectors:

 A1 = (   8.3264495632,   0.0000000000,   0.0000000000)
 A2 = (   0.0000000000,   8.3264495632,   0.0000000000)
 A3 = (   0.0000000000,   0.0000000000,   8.3264495632)
 Subroutine PRICEL returns:
 Original cell was already a primitive cell.

Analysis of symmetry for initial positions (statically):

 Routine SETGRP: Setting up the symmetry group for a
 simple cubic supercell.

 Subroutine GETGRP returns: Found  8 space group operations
 (whereof  8 operations were pure point group operations)
 out of a pool of 48 trial point group operations.

The static configuration has the point symmetry C_4v.

Analysis of symmetry for dynamics (positions and initial velocities):

 Subroutine DYNSYM returns: Found  8 space group operations
 (whereof  8 operations were pure point group operations)
 out of a pool of  8 trial space group operations
 (whereof  8 operations were pure point group operations)
 and found also     1 'primitive' translations

The dynamic configuration has the point symmetry C_4v.

 KPOINTS: Automatic mesh

Automatic generation of k-mesh.

 Subroutine IBZKPT returns following result:

 Found    196 irreducible k-points:

 Following reciprocal coordinates:
            Coordinates               Weight
  0.000000  0.000000  0.000000      1.000000
  0.083333  0.000000  0.000000      2.000000
  0.166667  0.000000  0.000000      2.000000
  0.250000  0.000000  0.000000      2.000000
  0.333333  0.000000  0.000000      2.000000
  0.416667  0.000000  0.000000      2.000000
  0.500000  0.000000  0.000000      1.000000
  0.000000  0.083333  0.000000      4.000000
  0.083333  0.083333  0.000000      8.000000
  0.166667  0.083333  0.000000      8.000000
  0.250000  0.083333  0.000000      8.000000
  0.333333  0.083333  0.000000      8.000000
  0.416667  0.083333  0.000000      8.000000
  0.500000  0.083333  0.000000      4.000000
  0.000000  0.166667  0.000000      4.000000
  0.083333  0.166667  0.000000      8.000000
  0.166667  0.166667  0.000000      8.000000
  0.250000  0.166667  0.000000      8.000000
  0.333333  0.166667  0.000000      8.000000
  0.416667  0.166667  0.000000      8.000000
  0.500000  0.166667  0.000000      4.000000
  0.000000  0.250000  0.000000      4.000000
  0.083333  0.250000  0.000000      8.000000
  0.166667  0.250000  0.000000      8.000000
  0.250000  0.250000  0.000000      8.000000
  0.333333  0.250000  0.000000      8.000000
  0.416667  0.250000  0.000000      8.000000
  0.500000  0.250000  0.000000      4.000000
  0.000000  0.333333  0.000000      4.000000
  0.083333  0.333333  0.000000      8.000000
  0.166667  0.333333  0.000000      8.000000
  0.250000  0.333333  0.000000      8.000000
  0.333333  0.333333  0.000000      8.000000
  0.416667  0.333333  0.000000      8.000000
  0.500000  0.333333  0.000000      4.000000
  0.000000  0.416667  0.000000      4.000000
  0.083333  0.416667  0.000000      8.000000
  0.166667  0.416667  0.000000      8.000000
  0.250000  0.416667  0.000000      8.000000
  0.333333  0.416667  0.000000      8.000000
  0.416667  0.416667  0.000000      8.000000
  0.500000  0.416667  0.000000      4.000000
  0.000000  0.500000  0.000000      2.000000
  0.083333  0.500000  0.000000      4.000000
  0.166667  0.500000  0.000000      4.000000
  0.250000  0.500000  0.000000      4.000000
  0.333333  0.500000  0.000000      4.000000
  0.416667  0.500000  0.000000      4.000000
  0.500000  0.500000  0.000000      2.000000
  0.000000  0.083333  0.083333      4.000000
  0.083333  0.083333  0.083333      8.000000
  0.166667  0.083333  0.083333      8.000000
  0.250000  0.083333  0.083333      8.000000
  0.333333  0.083333  0.083333      8.000000
  0.416667  0.083333  0.083333      8.000000
  0.500000  0.083333  0.083333      4.000000
  0.000000  0.166667  0.083333      8.000000
  0.083333  0.166667  0.083333     16.000000
  0.166667  0.166667  0.083333     16.000000
  0.250000  0.166667  0.083333     16.000000
[...]
  0.500000  0.416667  0.416667      4.000000
  0.000000  0.500000  0.416667      4.000000
  0.083333  0.500000  0.416667      8.000000
  0.166667  0.500000  0.416667      8.000000
  0.250000  0.500000  0.416667      8.000000
  0.333333  0.500000  0.416667      8.000000
  0.416667  0.500000  0.416667      8.000000
  0.500000  0.500000  0.416667      4.000000
  0.000000  0.500000  0.500000      1.000000
  0.083333  0.500000  0.500000      2.000000
  0.166667  0.500000  0.500000      2.000000
  0.250000  0.500000  0.500000      2.000000
  0.333333  0.500000  0.500000      2.000000
  0.416667  0.500000  0.500000      2.000000
  0.500000  0.500000  0.500000      1.000000

 Following cartesian coordinates:
            Coordinates               Weight
  0.000000  0.000000  0.000000      1.000000
  0.010008  0.000000  0.000000      2.000000
  0.020017  0.000000  0.000000      2.000000
  0.030025  0.000000  0.000000      2.000000
  0.040033  0.000000  0.000000      2.000000
  0.050041  0.000000  0.000000      2.000000
  0.060050  0.000000  0.000000      1.000000
  0.000000  0.010008  0.000000      4.000000
  0.010008  0.010008  0.000000      8.000000
  0.020017  0.010008  0.000000      8.000000
[...]
 number of electron  352.0000012 magnetization
 augmentation part   168.9209218 magnetization

[...]

 eigenvalue-minimisations  : 46992
 total energy-change (2. order) : 0.2592933E-06  (-0.1006762E-09)
 number of electron  352.0000012 magnetization
 augmentation part   168.9091445 magnetization

 Broyden mixing:
  rms(total) = 0.55285E-05    rms(broyden)= 0.55245E-05
  rms(prec ) = 0.71316E-05
  weight for this iteration     100.00

 eigenvalues of (default mixing * dielectric matrix)
  average eigenvalue GAMMA=   1.6056
  2.9378  2.6017  2.4930  1.7391  1.1210  1.0083  1.0083  0.7706  0.7706

[...]

----------------------------------------- Iteration    1(  15)  ---------------------------------------

 eigenvalue-minimisations  : 46624
 total energy-change (2. order) :-0.8018105E-08  ( 0.2458825E-10)
 number of electron  352.0000012 magnetization
 augmentation part   168.9091445 magnetization

 Free energy of the ion-electron system (eV)
  alpha Z        PSCENC =      3149.98753919
  Ewald energy   TEWEN  =    -30701.36009574
  -1/2 Hartree   DENC   =     -6385.37459613
  -V(xc)+E(xc)   XCENC  =      -360.98803268
  PAW double counting   =     27742.96169798   -26325.48734196
  entropy T*S    EENTRO =        -0.00063122
  eigenvalues    EBANDS =      -407.41426421
  atomic energy  EATOM  =     33197.19690173
  free energy    TOTEN  =       -90.47882303 eV

  energy without entropy =      -90.47819182  energy(sigma->0) =      -90.47850743

 average (electrostatic) potential at core
  the test charge radii are     1.1249
  (the norm of the test charge is              1.0000)
       1 -41.6302       2 -41.6301       3 -41.6301       4 -41.6301       5 -41.6301
       6 -41.6301       7 -41.6301       8 -41.6301       9 -41.6312      10 -41.6290
      11 -41.6312      12 -41.6290      13 -41.6302      14 -41.6301      15 -41.6302
      16 -41.6301      17 -41.6312      18 -41.6290      19 -41.6302      20 -41.6301
      21 -41.6312      22 -41.6290      23 -41.6302      24 -41.6301      25 -41.6301
      26 -41.6301      27 -41.6301      28 -41.6301      29 -41.6301      30 -41.6301
      31 -41.6301      32 -41.6301

 E-fermi :   3.0303     XC(G=0): -11.8764     alpha+bet : -8.0716
   add alpha+bet to get absolut eigen values

 k-point   1 :       0.0000    0.0000    0.0000
  band No.  band energies     occupation
      1      -4.3313      2.00000
      2      -3.0804      2.00000
      3      -3.0804      2.00000
      4      -3.0804      2.00000
      5      -3.0455      2.00000
      6      -3.0455      2.00000
      7      -3.0455      2.00000
      8      -3.0455      2.00000
      9      -2.9623      2.00000
     10      -2.9623      2.00000
     11      -2.9623      2.00000
     12      -2.6415      2.00000
     13      -2.6397      2.00000
     14      -2.6397      2.00000
     15      -2.6397      2.00000
     16      -2.6397      2.00000
     17      -2.6380      2.00000
     18      -2.3917      2.00000
     19      -2.3901      2.00000
     20      -2.3901      2.00000
     21      -2.3901      2.00000
     22      -2.3901      2.00000
     23      -2.3885      2.00000
     24      -2.3205      2.00000
     25      -2.3189      2.00000
     26      -2.3189      2.00000
     27      -2.3188      2.00000
     28      -2.3188      2.00000
     29      -2.3172      2.00000
     30      -2.0916      2.00000
     31      -2.0916      2.00000
     32      -2.0912      2.00000
     33      -2.0905      2.00000
     34      -2.0902      2.00000
     35      -2.0902      2.00000
     36      -2.0902      2.00000
     37      -2.0902      2.00000
     38      -2.0898      2.00000
     39      -2.0891      2.00000
     40      -2.0888      2.00000
     41      -2.0888      2.00000
     42      -1.8947      2.00000
     43      -1.8927      2.00000
     44      -1.8927      2.00000
     45      -1.8918      2.00000
     46      -1.8918      2.00000
     47      -1.8918      2.00000
     48      -1.8918      2.00000
     49      -1.8918      2.00000
     50      -1.8917      2.00000
     51      -1.8909      2.00000
     52      -1.8909      2.00000
     53      -1.8890      2.00000
     54      -1.8392      2.00000
     55      -1.8392      2.00000
     56      -1.8375      2.00000
     57      -1.8375      2.00000
     58      -1.8374      2.00000
     59      -1.8374      2.00000
     60      -1.8374      2.00000
[...]
    202       8.7887      0.00000
    203       9.3554      0.00000
    204       9.3554      0.00000
    205       9.3554      0.00000
    206       9.7342      0.00000
    207       9.7342      0.00000
    208       9.7343      0.00000
    209       9.7343      0.00000
    210       9.7343      0.00000
    211       9.7343      0.00000
    212      10.9053      0.00000
    213      10.9068      0.00000
    214      10.9068      0.00000
    215      10.9068      0.00000
    216      10.9084      0.00000

[...]

 k-point 196 :       0.5000    0.5000    0.5000
  band No.  band energies     occupation
      1      -3.0276      2.00000
      2      -3.0261      2.00000
      3      -3.0261      2.00000
      4      -3.0261      2.00000
      5      -3.0251      2.00000
      6      -3.0251      2.00000
      7      -3.0251      2.00000
      8      -3.0236      2.00000
      9      -2.6171      2.00000
     10      -2.6166      2.00000
     11      -2.6166      2.00000
     12      -2.6165      2.00000
     13      -2.6154      2.00000
     14      -2.6150      2.00000
     15      -2.6148      2.00000
     16      -2.6148      2.00000
     17      -2.6148      2.00000
     18      -2.6147      2.00000
     19      -2.6147      2.00000
     20      -2.6147      2.00000
     21      -2.6146      2.00000
     22      -2.6145      2.00000
     23      -2.6145      2.00000
     24      -2.6144      2.00000
     25      -2.6144      2.00000
     26      -2.6144      2.00000
     27      -2.6143      2.00000
     28      -2.6139      2.00000
     29      -2.6129      2.00000
     30      -2.6128      2.00000
     31      -2.6128      2.00000
     32      -2.6122      2.00000
     33      -2.0974      2.00000
     34      -2.0942      2.00000
     35      -2.0942      2.00000
     36      -2.0940      2.00000
     37      -2.0940      2.00000
     38      -2.0934      2.00000
     39      -2.0932      2.00000
     40      -2.0932      2.00000
     41      -2.0930      2.00000
     42      -2.0930      2.00000
     43      -2.0930      2.00000
     44      -2.0930      2.00000
     45      -2.0929      2.00000
     46      -2.0929      2.00000
     47      -2.0929      2.00000
     48      -2.0928      2.00000
     49      -2.0927      2.00000
     50      -2.0927      2.00000
     51      -2.0924      2.00000
     52      -2.0919      2.00000
     53      -2.0919      2.00000
     54      -2.0917      2.00000
     55      -2.0917      2.00000
     56      -2.0885      2.00000
     57      -1.4212      2.00000
     58      -1.4212      2.00000
     59      -1.4209      2.00000
     60      -1.4207      2.00000
[...]
    202       8.9128      0.00000
    203       8.9128      0.00000
    204       8.9128      0.00000
    205       8.9129      0.00000
    206       8.9130      0.00000
    207       8.9130      0.00000
    208       8.9130      0.00000
    209       8.9131      0.00000
    210       8.9134      0.00000
    211       8.9134      0.00000
    212       8.9139      0.00000
    213       8.9141      0.00000
    214       8.9162      0.00000
    215       8.9179      0.00000
    216       8.9179      0.00000

 soft charge-density along one line, spin component           1
         0         1         2         3         4         5         6         7         8         9
 total charge-density along one line

------------------------ aborting loop because EDIFF is reached ----------------------------------------

  FREE ENERGIE OF THE ION-ELECTRON SYSTEM (eV)
  free  energy   TOTEN  =       -90.478823 eV

  energy  without entropy=      -90.478192  energy(sigma->0) =      -90.478507

  FORCE on cell =-STRESS in cart. coord.  units (eV/reduce length):
  Direction    X        Y        Z        XY       YZ       ZX
  Alpha Z   3149.99   3149.99   3149.99
  Ewald   -10233.85 -10233.82 -10233.82      0.00      0.00      0.00
  Hartree   2128.44   2128.47   2128.47     -0.00     -0.00     -0.00
  E(xc)    -1859.65  -1859.65  -1859.65     -0.00     -0.00     -0.00
  Local     3230.71   3230.65   3230.65      0.00     -0.00     -0.00
  n-local  -2109.75  -2113.61  -2105.89      1.67      1.06      0.45
  augment   1341.04   1341.04   1341.04     -0.00     -0.00     -0.00
  Kinetic   4353.17   4346.71   4359.63      0.62     -0.65     -1.92
  Total        0.09      0.09      0.09      0.00      0.00      0.00
  in kB        0.25      0.24      0.24      0.00      0.00      0.00

 VOLUME and BASIS-vectors are now :
  energy-cutoff  :      750.00
  volume of cell :      577.27
      direct lattice vectors                 reciprocal lattice vectors
     8.326449563  0.000000000  0.000000000     0.120099208  0.000000000  0.000000000
     0.000000000  8.326449563  0.000000000     0.000000000  0.120099208  0.000000000
     0.000000000  0.000000000  8.326449563     0.000000000  0.000000000  0.120099208

  length of vectors
     8.326449563  8.326449563  8.326449563     0.120099208  0.120099208  0.120099208

 FORCES acting on ions
    electron-ion (+dipol)            ewald-force                    non-local-force                 convergence-correction
   0.390E+01 0.138E-13 0.585E-07   -.392E+01 0.231E-13 -.631E-13   -.276E-01 -.271E-19 0.000E+00   -.134E-04 0.126E-12 -.142E-12
   -.102E+01 0.175E-12 -.596E-07   0.103E+01 0.862E-13 -.853E-13   -.828E-02 0.000E+00 0.678E-20   0.185E-04 0.111E-12 -.231E-12
   0.326E+00 0.401E-14 -.188E-11   -.328E+00 0.417E-13 -.488E-13   0.158E-02 0.339E-20 0.339E-20   -.454E-05 -.289E-12 -.617E-13
   -.261E+00 0.115E-11 -.181E-11   0.257E+00 0.702E-13 0.000E+00   0.335E-02 0.000E+00 0.000E+00   -.170E-05 -.267E-12 -.927E-13
   0.326E+00 0.414E-13 0.646E-10   -.328E+00 0.132E-12 -.187E-13   0.158E-02 -.339E-20 0.233E-20   -.411E-05 0.937E-13 0.179E-13
   -.261E+00 -.658E-14 0.659E-10   0.257E+00 0.100E-12 -.426E-13   0.335E-02 -.678E-20 0.000E+00   -.178E-05 0.779E-13 0.942E-13
   0.136E+00 -.219E-13 -.101E-09   -.135E+00 0.666E-13 -.444E-14   -.117E-02 0.339E-20 0.000E+00   0.378E-05 -.259E-12 -.604E-13
   -.126E+00 -.634E-11 -.997E-10   0.126E+00 0.986E-13 -.284E-13   -.330E-03 0.000E+00 -.847E-21   -.722E-06 -.236E-12 -.548E-13
   -.496E+00 -.952E+00 -.651E-11   0.497E+00 0.955E+00 0.799E-14   0.468E-02 0.308E-02 -.678E-20   0.151E-05 0.850E-05 -.186E-12
   -.499E+00 0.944E+00 -.148E-10   0.500E+00 -.948E+00 -.204E-13   0.471E-02 -.309E-02 0.000E+00   0.320E-05 -.772E-05 -.119E-12
   -.496E+00 0.952E+00 -.668E-11   0.497E+00 -.955E+00 0.000E+00   0.468E-02 -.308E-02 0.000E+00   0.151E-05 -.850E-05 -.129E-12
   -.499E+00 -.944E+00 0.811E-12   0.500E+00 0.948E+00 -.568E-13   0.471E-02 0.309E-02 0.000E+00   0.320E-05 0.772E-05 -.838E-13
   -.137E-01 -.786E-01 0.457E-10   0.151E-01 0.785E-01 -.444E-14   -.124E-02 0.148E-03 -.768E-21   -.100E-07 0.237E-05 0.681E-13
   -.152E-01 0.785E-01 0.465E-10   0.167E-01 -.784E-01 0.977E-14   -.122E-02 -.171E-03 0.847E-21   0.201E-05 -.119E-05 -.101E-13
   -.137E-01 0.786E-01 0.459E-10   0.151E-01 -.785E-01 0.142E-13   -.124E-02 -.148E-03 -.847E-21   -.100E-07 -.237E-05 -.408E-14
   -.152E-01 -.785E-01 0.309E-10   0.167E-01 0.784E-01 -.711E-13   -.122E-02 0.171E-03 0.847E-21   0.201E-05 0.119E-05 -.616E-13
   -.496E+00 -.201E-13 -.952E+00   0.497E+00 0.497E-13 0.955E+00   0.468E-02 -.169E-20 0.308E-02   0.143E-05 0.747E-13 0.857E-05
   -.499E+00 0.234E-13 0.944E+00   0.500E+00 -.711E-14 -.948E+00   0.471E-02 -.678E-20 -.309E-02   0.312E-05 0.810E-13 -.779E-05
   -.137E-01 0.908E-12 -.786E-01   0.151E-01 0.213E-13 0.785E-01   -.124E-02 0.371E-21 0.148E-03   0.119E-07 -.226E-12 0.244E-05
   -.152E-01 0.933E-11 0.785E-01   0.167E-01 0.213E-13 -.784E-01   -.122E-02 -.169E-20 -.171E-03   0.203E-05 -.241E-12 -.126E-05
   -.496E+00 0.529E-13 0.952E+00   0.497E+00 0.142E-13 -.955E+00   0.468E-02 0.339E-20 -.308E-02   0.143E-05 0.143E-12 -.857E-05
   -.499E+00 0.456E-13 -.944E+00   0.500E+00 0.142E-13 0.948E+00   0.471E-02 0.000E+00 0.309E-02   0.312E-05 0.124E-12 0.779E-05
   -.137E-01 0.119E-11 0.786E-01   0.151E-01 -.568E-13 -.785E-01   -.124E-02 0.000E+00 -.148E-03   0.119E-07 -.291E-12 -.244E-05
   -.152E-01 -.671E-11 -.785E-01   0.167E-01 0.284E-13 0.784E-01   -.122E-02 -.212E-21 0.171E-03   0.203E-05 -.283E-12 0.126E-05
   0.615E+00 0.234E-02 0.234E-02   -.618E+00 -.233E-02 -.233E-02   0.162E-02 -.159E-04 -.159E-04   -.911E-05 0.562E-06 0.561E-06
   -.345E+00 -.679E-03 -.679E-03   0.347E+00 0.699E-03 0.699E-03   -.168E-02 -.183E-04 -.183E-04   0.348E-05 0.418E-06 0.418E-06
   0.615E+00 -.234E-02 0.234E-02   -.618E+00 0.233E-02 -.233E-02   0.162E-02 0.159E-04 -.159E-04   -.911E-05 -.562E-06 0.561E-06
   -.345E+00 0.679E-03 -.679E-03   0.347E+00 -.699E-03 0.699E-03   -.168E-02 0.183E-04 -.183E-04   0.348E-05 -.418E-06 0.418E-06
   0.615E+00 0.234E-02 -.234E-02   -.618E+00 -.233E-02 0.233E-02   0.162E-02 -.159E-04 0.159E-04   -.911E-05 0.562E-06 -.561E-06
   -.345E+00 -.679E-03 0.679E-03   0.347E+00 0.699E-03 -.699E-03   -.168E-02 -.183E-04 0.183E-04   0.348E-05 0.418E-06 -.418E-06
   0.615E+00 -.234E-02 -.234E-02   -.618E+00 0.233E-02 0.233E-02   0.162E-02 0.159E-04 0.159E-04   -.911E-05 -.562E-06 -.561E-06
   -.345E+00 0.679E-03 0.679E-03   0.347E+00 -.699E-03 -.699E-03   -.168E-02 0.183E-04 0.183E-04   0.348E-05 -.418E-06 -.418E-06
   -.137E-06 0.201E-11 -.120E-09   -.114E-13 0.105E-12 0.296E-12   -.642E-05 -.169E-19 -.396E-18   0.775E-08 -.642E-12 -.240E-12

 POSITION                                       TOTAL-FORCE (eV/Angst)
      0.01000      0.00000      0.00000        -0.044908      0.000000     -0.000000
      4.16322      0.00000      0.00000         0.001150     -0.000000      0.000000
      0.00000      4.16322      0.00000        -0.000329      0.000000     -0.000000
      4.16322      4.16322      0.00000        -0.000431     -0.000000     -0.000000
      0.00000      0.00000      4.16322        -0.000329      0.000000      0.000000
      4.16322      0.00000      4.16322        -0.000431     -0.000000      0.000000
      0.00000      4.16322      4.16322        -0.000075      0.000000     -0.000000
      4.16322      4.16322      4.16322        -0.000165     -0.000000      0.000000
      2.08161      2.08161      0.00000         0.005801      0.006823     -0.000000
      6.24484      2.08161      0.00000         0.005618     -0.006567      0.000000
      2.08161      6.24484      0.00000         0.005801     -0.006823     -0.000000
      6.24484      6.24484      0.00000         0.005618      0.006567     -0.000000
      2.08161      2.08161      4.16322         0.000225      0.000081     -0.000000
      6.24484      2.08161      4.16322         0.000225     -0.000076     -0.000000
      2.08161      6.24484      4.16322         0.000225     -0.000081     -0.000000
      6.24484      6.24484      4.16322         0.000225      0.000076     -0.000000
      2.08161      0.00000      2.08161         0.005801      0.000000      0.006823
      6.24484      0.00000      2.08161         0.005618      0.000000     -0.006567
      2.08161      4.16322      2.08161         0.000225      0.000000      0.000081
      6.24484      4.16322      2.08161         0.000225      0.000000     -0.000076
      2.08161      0.00000      6.24484         0.005801      0.000000     -0.006823
      6.24484      0.00000      6.24484         0.005618      0.000000      0.006567
      2.08161      4.16322      6.24484         0.000225      0.000000     -0.000081
      6.24484      4.16322      6.24484         0.000225      0.000000      0.000076
      0.00000      2.08161      2.08161        -0.001064     -0.000009     -0.000009
      4.16322      2.08161      2.08161         0.000575      0.000003      0.000003
      0.00000      6.24484      2.08161        -0.001064      0.000009     -0.000009
      4.16322      6.24484      2.08161         0.000575     -0.000003      0.000003
      0.00000      2.08161      6.24484        -0.001064     -0.000009      0.000009
      4.16322      2.08161      6.24484         0.000575      0.000003     -0.000003
      0.00000      6.24484      6.24484        -0.001064      0.000009      0.000009
      4.16322      6.24484      6.24484         0.000575     -0.000003     -0.000003
    total drift:                               -0.000007      0.000000     -0.000000

 mean value of Nose-termostat <S>:     1.000 mean value of <T> :     0.000
 mean temperature <T/S>/<1/S>  :     0.000