 vasp.4.6.28 25Jul05 complex
 executed on             LinuxIFC date 2017.01.11  09:12:48

 INCAR:
 POTCAR:   PAW_PBE Ag 06Sep2000
 POTCAR:   PAW_PBE Ag 06Sep2000
   VRHFIN =Ag : s1 d10

   TITEL  = PAW_PBE Ag 06Sep2000
   POMASS =  107.868; ZVAL   =   11.000    mass and valenz
   ENMAX  =  249.846; ENMIN  =  187.385 eV
   QCUT   =   -4.285; QGAM   =    8.570    optimization parameters

   Description
     l     E      TYP  RCUT    TYP  RCUT
     2   .000     23  2.400
     2   .000     23  2.400
     0   .000     23  2.400
     0   .000     23  2.400
     1  -.200     23  2.400
     1  1.500     23  2.400
     3   .000      7   .000

 PAW_PBE Ag 06Sep2000                   :

 POSCAR: Ag
  positions in direct lattice

 ion  position               nearest neighbor table
   1  0.001  0.000  0.000-   9 3.00  11 3.00  17 3.00  21 3.00  25 3.00  27 3.00  29 3.00  31 3.00
                            10 3.01  18 3.01  12 3.01  22 3.01
   2  0.500  0.000  0.000-   9 3.00  10 3.00  11 3.00  12 3.00  17 3.00  18 3.00  21 3.00  22 3.00
                            26 3.00  28 3.00  30 3.00  32 3.00
   3  0.000  0.500  0.000-   9 3.00  10 3.00  11 3.00  12 3.00  19 3.00  20 3.00  23 3.00  24 3.00
                            25 3.00  27 3.00  29 3.00  31 3.00
   4  0.500  0.500  0.000-   9 3.00  10 3.00  11 3.00  12 3.00  19 3.00  20 3.00  23 3.00  24 3.00
                            26 3.00  28 3.00  30 3.00  32 3.00
   5  0.000  0.000  0.500-  13 3.00  14 3.00  15 3.00  16 3.00  17 3.00  18 3.00  21 3.00  22 3.00
                            25 3.00  27 3.00  29 3.00  31 3.00
   6  0.500  0.000  0.500-  13 3.00  14 3.00  15 3.00  16 3.00  17 3.00  18 3.00  21 3.00  22 3.00
                            26 3.00  28 3.00  30 3.00  32 3.00
   7  0.000  0.500  0.500-  13 3.00  14 3.00  15 3.00  16 3.00  19 3.00  20 3.00  23 3.00  24 3.00
                            25 3.00  27 3.00  29 3.00  31 3.00
   8  0.500  0.500  0.500-  13 3.00  14 3.00  15 3.00  16 3.00  19 3.00  20 3.00  23 3.00  24 3.00
                            26 3.00  28 3.00  30 3.00  32 3.00
   9  0.250  0.250  0.000-   1 3.00   2 3.00   3 3.00   4 3.00  17 3.00  19 3.00  21 3.00  23 3.00
                            25 3.00  26 3.00  29 3.00  30 3.00
  10  0.750  0.250  0.000-   2 3.00   3 3.00   4 3.00  18 3.00  20 3.00  22 3.00  24 3.00  25 3.00
                            26 3.00  29 3.00  30 3.00   1 3.01
  11  0.250  0.750  0.000-   1 3.00   2 3.00   3 3.00   4 3.00  17 3.00  19 3.00  21 3.00  23 3.00
                            27 3.00  28 3.00  31 3.00  32 3.00
  12  0.750  0.750  0.000-   2 3.00   3 3.00   4 3.00  18 3.00  20 3.00  22 3.00  24 3.00  27 3.00
                            28 3.00  31 3.00  32 3.00   1 3.01
  13  0.250  0.250  0.500-   5 3.00   6 3.00   7 3.00   8 3.00  17 3.00  19 3.00  21 3.00  23 3.00
                            25 3.00  26 3.00  29 3.00  30 3.00
  14  0.750  0.250  0.500-   5 3.00   6 3.00   7 3.00   8 3.00  18 3.00  20 3.00  22 3.00  24 3.00
                            25 3.00  26 3.00  29 3.00  30 3.00
  15  0.250  0.750  0.500-   5 3.00   6 3.00   7 3.00   8 3.00  17 3.00  19 3.00  21 3.00  23 3.00
                            27 3.00  28 3.00  31 3.00  32 3.00
  16  0.750  0.750  0.500-   5 3.00   6 3.00   7 3.00   8 3.00  18 3.00  20 3.00  22 3.00  24 3.00
                            27 3.00  28 3.00  31 3.00  32 3.00
  17  0.250  0.000  0.250-   1 3.00   2 3.00   5 3.00   6 3.00   9 3.00  11 3.00  13 3.00  15 3.00
                            25 3.00  26 3.00  27 3.00  28 3.00
  18  0.750  0.000  0.250-   2 3.00   5 3.00   6 3.00  10 3.00  12 3.00  14 3.00  16 3.00  25 3.00
                            26 3.00  27 3.00  28 3.00   1 3.01
  19  0.250  0.500  0.250-   3 3.00   4 3.00   7 3.00   8 3.00   9 3.00  11 3.00  13 3.00  15 3.00
                            25 3.00  26 3.00  27 3.00  28 3.00
  20  0.750  0.500  0.250-   3 3.00   4 3.00   7 3.00   8 3.00  10 3.00  12 3.00  14 3.00  16 3.00
                            25 3.00  26 3.00  27 3.00  28 3.00
  21  0.250  0.000  0.750-   1 3.00   2 3.00   5 3.00   6 3.00   9 3.00  11 3.00  13 3.00  15 3.00
                            29 3.00  30 3.00  31 3.00  32 3.00
  22  0.750  0.000  0.750-   2 3.00   5 3.00   6 3.00  10 3.00  12 3.00  14 3.00  16 3.00  29 3.00
                            30 3.00  31 3.00  32 3.00   1 3.01
  23  0.250  0.500  0.750-   3 3.00   4 3.00   7 3.00   8 3.00   9 3.00  11 3.00  13 3.00  15 3.00
                            29 3.00  30 3.00  31 3.00  32 3.00
  24  0.750  0.500  0.750-   3 3.00   4 3.00   7 3.00   8 3.00  10 3.00  12 3.00  14 3.00  16 3.00
                            29 3.00  30 3.00  31 3.00  32 3.00
  25  0.000  0.250  0.250-   3 3.00   5 3.00   7 3.00   9 3.00  10 3.00  13 3.00  14 3.00  17 3.00
                            18 3.00  19 3.00  20 3.00   1 3.00
  26  0.500  0.250  0.250-   2 3.00   4 3.00   6 3.00   8 3.00   9 3.00  10 3.00  13 3.00  14 3.00
                            17 3.00  18 3.00  19 3.00  20 3.00
  27  0.000  0.750  0.250-   3 3.00   5 3.00   7 3.00  11 3.00  12 3.00  15 3.00  16 3.00  17 3.00
                            18 3.00  19 3.00  20 3.00   1 3.00
  28  0.500  0.750  0.250-   2 3.00   4 3.00   6 3.00   8 3.00  11 3.00  12 3.00  15 3.00  16 3.00
                            17 3.00  18 3.00  19 3.00  20 3.00
  29  0.000  0.250  0.750-   3 3.00   5 3.00   7 3.00   9 3.00  10 3.00  13 3.00  14 3.00  21 3.00
                            22 3.00  23 3.00  24 3.00   1 3.00
  30  0.500  0.250  0.750-   2 3.00   4 3.00   6 3.00   8 3.00   9 3.00  10 3.00  13 3.00  14 3.00
                            21 3.00  22 3.00  23 3.00  24 3.00
  31  0.000  0.750  0.750-   3 3.00   5 3.00   7 3.00  11 3.00  12 3.00  15 3.00  16 3.00  21 3.00
                            22 3.00  23 3.00  24 3.00   1 3.00
  32  0.500  0.750  0.750-   2 3.00   4 3.00   6 3.00   8 3.00  11 3.00  12 3.00  15 3.00  16 3.00
                            21 3.00  22 3.00  23 3.00  24 3.00

  LATTYP: Found a simple cubic cell.
 ALAT       =     8.4929785545

  Lattice vectors:

 A1 = (   8.4929785545,   0.0000000000,   0.0000000000)
 A2 = (   0.0000000000,   8.4929785545,   0.0000000000)
 A3 = (   0.0000000000,   0.0000000000,   8.4929785545)
 Subroutine PRICEL returns:
 Original cell was already a primitive cell.

Analysis of symmetry for initial positions (statically):

 Routine SETGRP: Setting up the symmetry group for a
 simple cubic supercell.

 Subroutine GETGRP returns: Found  8 space group operations
 (whereof  8 operations were pure point group operations)
 out of a pool of 48 trial point group operations.

The static configuration has the point symmetry C_4v.

Analysis of symmetry for dynamics (positions and initial velocities):

 Subroutine DYNSYM returns: Found  8 space group operations
 (whereof  8 operations were pure point group operations)
 out of a pool of  8 trial space group operations
 (whereof  8 operations were pure point group operations)
 and found also     1 'primitive' translations

The dynamic configuration has the point symmetry C_4v.

 KPOINTS: Automatic mesh

Automatic generation of k-mesh.

 Subroutine IBZKPT returns following result:

 Found    196 irreducible k-points:

 Following reciprocal coordinates:
            Coordinates               Weight
  0.000000  0.000000  0.000000      1.000000
  0.083333  0.000000  0.000000      2.000000
  0.166667  0.000000  0.000000      2.000000
  0.250000  0.000000  0.000000      2.000000
  0.333333  0.000000  0.000000      2.000000
  0.416667  0.000000  0.000000      2.000000
  0.500000  0.000000  0.000000      1.000000
  0.000000  0.083333  0.000000      4.000000
  0.083333  0.083333  0.000000      8.000000
  0.166667  0.083333  0.000000      8.000000
  0.250000  0.083333  0.000000      8.000000
  0.333333  0.083333  0.000000      8.000000
  0.416667  0.083333  0.000000      8.000000
  0.500000  0.083333  0.000000      4.000000
  0.000000  0.166667  0.000000      4.000000
  0.083333  0.166667  0.000000      8.000000
  0.166667  0.166667  0.000000      8.000000
  0.250000  0.166667  0.000000      8.000000
  0.333333  0.166667  0.000000      8.000000
  0.416667  0.166667  0.000000      8.000000
  0.500000  0.166667  0.000000      4.000000
  0.000000  0.250000  0.000000      4.000000
  0.083333  0.250000  0.000000      8.000000
  0.166667  0.250000  0.000000      8.000000
  0.250000  0.250000  0.000000      8.000000
  0.333333  0.250000  0.000000      8.000000
  0.416667  0.250000  0.000000      8.000000
  0.500000  0.250000  0.000000      4.000000
  0.000000  0.333333  0.000000      4.000000
  0.083333  0.333333  0.000000      8.000000
  0.166667  0.333333  0.000000      8.000000
  0.250000  0.333333  0.000000      8.000000
  0.333333  0.333333  0.000000      8.000000
  0.416667  0.333333  0.000000      8.000000
  0.500000  0.333333  0.000000      4.000000
  0.000000  0.416667  0.000000      4.000000
  0.083333  0.416667  0.000000      8.000000
  0.166667  0.416667  0.000000      8.000000
  0.250000  0.416667  0.000000      8.000000
  0.333333  0.416667  0.000000      8.000000
  0.416667  0.416667  0.000000      8.000000
  0.500000  0.416667  0.000000      4.000000
  0.000000  0.500000  0.000000      2.000000
  0.083333  0.500000  0.000000      4.000000
  0.166667  0.500000  0.000000      4.000000
  0.250000  0.500000  0.000000      4.000000
  0.333333  0.500000  0.000000      4.000000
  0.416667  0.500000  0.000000      4.000000
  0.500000  0.500000  0.000000      2.000000
  0.000000  0.083333  0.083333      4.000000
  0.083333  0.083333  0.083333      8.000000
  0.166667  0.083333  0.083333      8.000000
  0.250000  0.083333  0.083333      8.000000
  0.333333  0.083333  0.083333      8.000000
  0.416667  0.083333  0.083333      8.000000
  0.500000  0.083333  0.083333      4.000000
  0.000000  0.166667  0.083333      8.000000
  0.083333  0.166667  0.083333     16.000000
  0.166667  0.166667  0.083333     16.000000
  0.250000  0.166667  0.083333     16.000000
[...]
  0.500000  0.416667  0.416667      4.000000
  0.000000  0.500000  0.416667      4.000000
  0.083333  0.500000  0.416667      8.000000
  0.166667  0.500000  0.416667      8.000000
  0.250000  0.500000  0.416667      8.000000
  0.333333  0.500000  0.416667      8.000000
  0.416667  0.500000  0.416667      8.000000
  0.500000  0.500000  0.416667      4.000000
  0.000000  0.500000  0.500000      1.000000
  0.083333  0.500000  0.500000      2.000000
  0.166667  0.500000  0.500000      2.000000
  0.250000  0.500000  0.500000      2.000000
  0.333333  0.500000  0.500000      2.000000
  0.416667  0.500000  0.500000      2.000000
  0.500000  0.500000  0.500000      1.000000

 Following cartesian coordinates:
            Coordinates               Weight
  0.000000  0.000000  0.000000      1.000000
  0.009812  0.000000  0.000000      2.000000
  0.019624  0.000000  0.000000      2.000000
  0.029436  0.000000  0.000000      2.000000
  0.039248  0.000000  0.000000      2.000000
  0.049060  0.000000  0.000000      2.000000
  0.058872  0.000000  0.000000      1.000000
  0.000000  0.009812  0.000000      4.000000
  0.009812  0.009812  0.000000      8.000000
  0.019624  0.009812  0.000000      8.000000
[...]
 number of electron  352.0000010 magnetization
 augmentation part   169.2387789 magnetization

[...]

 eigenvalue-minimisations  : 46664
 total energy-change (2. order) :-0.1519220E-07  ( 0.2470358E-10)
 number of electron  352.0000010 magnetization
 augmentation part   169.2387838 magnetization

 Broyden mixing:
  rms(total) = 0.31184E-05    rms(broyden)= 0.31101E-05
  rms(prec ) = 0.39278E-05
  weight for this iteration     100.00

 eigenvalues of (default mixing * dielectric matrix)
  average eigenvalue GAMMA=   1.5666
  2.9596  2.6238  2.4554  2.1141  1.1815  0.9982  0.9982  0.7922  0.7714  0.7714

[...]

----------------------------------------- Iteration    1(  16)  ---------------------------------------

 eigenvalue-minimisations  : 46368
 total energy-change (2. order) : 0.4780304E-08  ( 0.4134236E-10)
 number of electron  352.0000010 magnetization
 augmentation part   169.2387838 magnetization

 Free energy of the ion-electron system (eV)
  alpha Z        PSCENC =      2968.30361172
  Ewald energy   TEWEN  =    -30099.37338892
  -1/2 Hartree   DENC   =     -6698.45655332
  -V(xc)+E(xc)   XCENC  =      -365.32612903
  PAW double counting   =     27636.99232559   -26210.36216923
  entropy T*S    EENTRO =        -0.00014258
  eigenvalues    EBANDS =      -518.93902345
  atomic energy  EATOM  =     33197.19690173
  free energy    TOTEN  =       -89.96456749 eV

  energy without entropy =      -89.96442491  energy(sigma->0) =      -89.96449620

 average (electrostatic) potential at core
  the test charge radii are     1.1249
  (the norm of the test charge is              1.0000)
       1 -41.9761       2 -41.9760       3 -41.9760       4 -41.9760       5 -41.9760
       6 -41.9760       7 -41.9760       8 -41.9760       9 -41.9771      10 -41.9750
      11 -41.9771      12 -41.9750      13 -41.9761      14 -41.9760      15 -41.9761
      16 -41.9760      17 -41.9771      18 -41.9750      19 -41.9761      20 -41.9760
      21 -41.9771      22 -41.9750      23 -41.9761      24 -41.9760      25 -41.9760
      26 -41.9760      27 -41.9760      28 -41.9760      29 -41.9760      30 -41.9760
      31 -41.9760      32 -41.9760

 E-fermi :   2.5901     XC(G=0): -11.5323     alpha+bet : -7.6060
   add alpha+bet to get absolut eigen values

 k-point   1 :       0.0000    0.0000    0.0000
  band No.  band energies     occupation
      1      -4.4057      2.00000
      2      -3.2171      2.00000
      3      -3.2171      2.00000
      4      -3.2171      2.00000
      5      -3.1941      2.00000
      6      -3.1941      2.00000
      7      -3.1941      2.00000
      8      -3.1941      2.00000
      9      -3.1181      2.00000
     10      -3.1181      2.00000
     11      -3.1181      2.00000
     12      -2.8044      2.00000
     13      -2.8027      2.00000
     14      -2.8027      2.00000
     15      -2.8027      2.00000
     16      -2.8027      2.00000
     17      -2.8011      2.00000
     18      -2.5888      2.00000
     19      -2.5874      2.00000
     20      -2.5874      2.00000
     21      -2.5874      2.00000
     22      -2.5874      2.00000
     23      -2.5860      2.00000
     24      -2.5376      2.00000
     25      -2.5361      2.00000
     26      -2.5361      2.00000
     27      -2.5361      2.00000
     28      -2.5361      2.00000
     29      -2.5347      2.00000
     30      -2.3233      2.00000
     31      -2.3233      2.00000
     32      -2.3230      2.00000
     33      -2.3223      2.00000
     34      -2.3220      2.00000
     35      -2.3220      2.00000
     36      -2.3220      2.00000
     37      -2.3220      2.00000
     38      -2.3217      2.00000
     39      -2.3211      2.00000
     40      -2.3208      2.00000
     41      -2.3208      2.00000
     42      -2.1466      2.00000
     43      -2.1448      2.00000
     44      -2.1448      2.00000
     45      -2.1440      2.00000
     46      -2.1440      2.00000
     47      -2.1440      2.00000
     48      -2.1440      2.00000
     49      -2.1440      2.00000
     50      -2.1439      2.00000
     51      -2.1432      2.00000
     52      -2.1432      2.00000
     53      -2.1415      2.00000
     54      -2.0950      2.00000
     55      -2.0950      2.00000
     56      -2.0934      2.00000
     57      -2.0934      2.00000
     58      -2.0934      2.00000
     59      -2.0934      2.00000
     60      -2.0934      2.00000
[...]
    202       8.0974      0.00000
    203       8.4514      0.00000
    204       8.4514      0.00000
    205       8.4514      0.00000
    206       8.8438      0.00000
    207       8.8438      0.00000
    208       8.8438      0.00000
    209       8.8439      0.00000
    210       8.8439      0.00000
    211       8.8439      0.00000
    212      10.1195      0.00000
    213      10.1213      0.00000
    214      10.1213      0.00000
    215      10.1213      0.00000
    216      10.1230      0.00000

[...]

 k-point 196 :       0.5000    0.5000    0.5000
  band No.  band energies     occupation
      1      -3.1697      2.00000
      2      -3.1683      2.00000
      3      -3.1683      2.00000
      4      -3.1683      2.00000
      5      -3.1674      2.00000
      6      -3.1674      2.00000
      7      -3.1674      2.00000
      8      -3.1660      2.00000
      9      -2.8018      2.00000
     10      -2.8013      2.00000
     11      -2.8013      2.00000
     12      -2.8011      2.00000
     13      -2.8003      2.00000
     14      -2.7999      2.00000
     15      -2.7997      2.00000
     16      -2.7997      2.00000
     17      -2.7997      2.00000
     18      -2.7996      2.00000
     19      -2.7996      2.00000
     20      -2.7996      2.00000
     21      -2.7995      2.00000
     22      -2.7995      2.00000
     23      -2.7995      2.00000
     24      -2.7994      2.00000
     25      -2.7994      2.00000
     26      -2.7994      2.00000
     27      -2.7993      2.00000
     28      -2.7988      2.00000
     29      -2.7980      2.00000
     30      -2.7979      2.00000
     31      -2.7979      2.00000
     32      -2.7974      2.00000
     33      -2.3241      2.00000
     34      -2.3212      2.00000
     35      -2.3212      2.00000
     36      -2.3210      2.00000
     37      -2.3210      2.00000
     38      -2.3206      2.00000
     39      -2.3203      2.00000
     40      -2.3203      2.00000
     41      -2.3202      2.00000
     42      -2.3201      2.00000
     43      -2.3201      2.00000
     44      -2.3201      2.00000
     45      -2.3201      2.00000
     46      -2.3201      2.00000
     47      -2.3201      2.00000
     48      -2.3200      2.00000
     49      -2.3199      2.00000
     50      -2.3199      2.00000
     51      -2.3197      2.00000
     52      -2.3192      2.00000
     53      -2.3192      2.00000
     54      -2.3191      2.00000
     55      -2.3190      2.00000
     56      -2.3162      2.00000
     57      -1.7294      2.00000
     58      -1.7294      2.00000
     59      -1.7291      2.00000
     60      -1.7289      2.00000
[...]
    202       8.1604      0.00000
    203       8.1604      0.00000
    204       8.1604      0.00000
    205       8.1605      0.00000
    206       8.1605      0.00000
    207       8.1605      0.00000
    208       8.1605      0.00000
    209       8.1606      0.00000
    210       8.1609      0.00000
    211       8.1609      0.00000
    212       8.1613      0.00000
    213       8.1615      0.00000
    214       8.1632      0.00000
    215       8.1651      0.00000
    216       8.1651      0.00000

 soft charge-density along one line, spin component           1
         0         1         2         3         4         5         6         7         8         9
 total charge-density along one line

------------------------ aborting loop because EDIFF is reached ----------------------------------------

  FREE ENERGIE OF THE ION-ELECTRON SYSTEM (eV)
  free  energy   TOTEN  =       -89.964567 eV

  energy  without entropy=      -89.964425  energy(sigma->0) =      -89.964496

  FORCE on cell =-STRESS in cart. coord.  units (eV/reduce length):
  Direction    X        Y        Z        XY       YZ       ZX
  Alpha Z   2968.30   2968.30   2968.30
  Ewald   -10033.19 -10033.15 -10033.15      0.00      0.00      0.00
  Hartree   2232.80   2232.83   2232.83      0.00     -0.00     -0.00
  E(xc)    -1856.02  -1856.02  -1856.02     -0.00      0.00     -0.00
  Local     3118.67   3118.61   3118.61     -0.00      0.00      0.00
  n-local  -2135.36  -2139.04  -2131.69      1.61      0.91      0.22
  augment   1338.99   1338.99   1338.99     -0.00     -0.00     -0.00
  Kinetic   4348.96   4342.82   4355.10      0.77     -0.63     -2.03
  Total      -16.86    -16.86    -16.86     -0.00      0.00      0.00
  in kB      -44.08    -44.08    -44.08     -0.00      0.00      0.00

 VOLUME and BASIS-vectors are now :
  energy-cutoff  :      750.00
  volume of cell :      612.60
      direct lattice vectors                 reciprocal lattice vectors
     8.492978554  0.000000000  0.000000000     0.117744322  0.000000000  0.000000000
     0.000000000  8.492978554  0.000000000     0.000000000  0.117744322  0.000000000
     0.000000000  0.000000000  8.492978554     0.000000000  0.000000000  0.117744322

  length of vectors
     8.492978554  8.492978554  8.492978554     0.117744322  0.117744322  0.117744322

 FORCES acting on ions
    electron-ion (+dipol)            ewald-force                    non-local-force                 convergence-correction
   0.369E+01 0.321E-13 0.670E-07   -.369E+01 -.140E-12 0.275E-13   -.302E-01 0.000E+00 0.000E+00   -.164E-04 0.649E-13 -.140E-12
   -.966E+00 0.200E-12 -.680E-07   0.975E+00 -.835E-13 -.266E-13   -.763E-02 0.000E+00 0.000E+00   -.468E-06 0.692E-13 -.227E-12
   0.307E+00 -.918E-14 -.617E-11   -.309E+00 -.355E-13 0.355E-13   0.110E-02 0.508E-20 0.000E+00   0.112E-05 -.238E-12 -.810E-13
   -.246E+00 0.104E-11 -.601E-11   0.242E+00 -.302E-13 -.124E-13   0.320E-02 0.000E+00 0.339E-20   -.255E-05 -.236E-12 -.118E-12
   0.307E+00 0.333E-13 0.291E-10   -.309E+00 -.355E-13 0.249E-13   0.110E-02 0.000E+00 -.169E-20   0.155E-05 0.630E-13 -.283E-13
   -.246E+00 -.923E-14 0.304E-10   0.242E+00 -.126E-12 0.835E-13   0.320E-02 -.339E-20 -.678E-20   -.264E-05 0.659E-13 0.394E-13
   0.129E+00 -.917E-14 0.518E-11   -.127E+00 -.711E-14 0.639E-13   -.130E-02 -.339E-20 0.000E+00   0.367E-05 -.237E-12 -.880E-13
   -.119E+00 -.648E-11 0.701E-11   0.119E+00 -.178E-14 0.551E-13   -.690E-04 0.000E+00 0.265E-22   -.207E-05 -.233E-12 -.681E-13
   -.469E+00 -.899E+00 -.355E-10   0.468E+00 0.900E+00 0.213E-13   0.489E-02 0.367E-02 0.000E+00   0.525E-05 0.483E-05 -.184E-12
   -.472E+00 0.892E+00 -.439E-10   0.471E+00 -.893E+00 0.355E-13   0.489E-02 -.365E-02 0.000E+00   0.340E-05 -.509E-05 -.128E-12
   -.469E+00 0.899E+00 -.357E-10   0.468E+00 -.900E+00 -.409E-13   0.489E-02 -.367E-02 0.000E+00   0.525E-05 -.483E-05 -.141E-12
   -.472E+00 -.892E+00 -.281E-10   0.471E+00 0.893E+00 -.977E-13   0.489E-02 0.365E-02 0.000E+00   0.340E-05 0.509E-05 -.111E-12
   -.130E-01 -.741E-01 0.170E-10   0.143E-01 0.740E-01 0.639E-13   -.109E-02 0.151E-03 0.000E+00   0.615E-06 0.397E-06 0.250E-14
   -.144E-01 0.740E-01 0.176E-10   0.157E-01 -.739E-01 0.497E-13   -.109E-02 -.155E-03 0.424E-21   -.127E-05 -.495E-06 -.458E-13
   -.130E-01 0.741E-01 0.172E-10   0.143E-01 -.740E-01 0.693E-13   -.109E-02 -.151E-03 -.424E-21   0.615E-06 -.397E-06 -.367E-13
   -.144E-01 -.740E-01 0.194E-11   0.157E-01 0.739E-01 0.693E-13   -.109E-02 0.155E-03 0.847E-21   -.127E-05 0.495E-06 -.734E-13
   -.469E+00 -.115E-14 -.899E+00   0.468E+00 0.103E-12 0.900E+00   0.489E-02 -.339E-20 0.367E-02   0.517E-05 0.400E-13 0.490E-05
   -.472E+00 0.975E-14 0.892E+00   0.471E+00 0.462E-13 -.893E+00   0.489E-02 -.339E-20 -.365E-02   0.332E-05 0.722E-13 -.516E-05
   -.130E-01 0.902E-12 -.741E-01   0.143E-01 0.959E-13 0.740E-01   -.109E-02 -.169E-20 0.151E-03   0.636E-06 -.205E-12 0.465E-06
   -.144E-01 0.937E-11 0.740E-01   0.157E-01 0.153E-12 -.739E-01   -.109E-02 0.847E-21 -.155E-03   -.125E-05 -.232E-12 -.563E-06
   -.469E+00 0.821E-13 0.899E+00   0.468E+00 0.728E-13 -.900E+00   0.489E-02 -.339E-20 -.367E-02   0.517E-05 0.805E-13 -.490E-05
   -.472E+00 0.459E-13 -.892E+00   0.471E+00 0.728E-13 0.893E+00   0.489E-02 0.339E-20 0.365E-02   0.332E-05 0.943E-13 0.516E-05
   -.130E-01 0.122E-11 0.741E-01   0.143E-01 0.126E-12 -.740E-01   -.109E-02 0.000E+00 -.151E-03   0.636E-06 -.244E-12 -.465E-06
   -.144E-01 -.689E-11 -.740E-01   0.157E-01 0.183E-12 0.739E-01   -.109E-02 0.000E+00 0.155E-03   -.125E-05 -.255E-12 0.563E-06
   0.580E+00 0.216E-02 0.216E-02   -.582E+00 -.216E-02 -.216E-02   0.126E-02 -.113E-04 -.113E-04   -.760E-06 -.129E-06 -.129E-06
   -.326E+00 -.633E-03 -.633E-03   0.327E+00 0.646E-03 0.646E-03   -.121E-02 -.110E-04 -.110E-04   -.273E-05 -.992E-07 -.991E-07
   0.580E+00 -.216E-02 0.216E-02   -.582E+00 0.216E-02 -.216E-02   0.126E-02 0.113E-04 -.113E-04   -.760E-06 0.129E-06 -.129E-06
   -.326E+00 0.633E-03 -.633E-03   0.327E+00 -.646E-03 0.646E-03   -.121E-02 0.110E-04 -.110E-04   -.273E-05 0.992E-07 -.991E-07
   0.580E+00 0.216E-02 -.216E-02   -.582E+00 -.216E-02 0.216E-02   0.126E-02 -.113E-04 0.113E-04   -.760E-06 -.129E-06 0.129E-06
   -.326E+00 -.633E-03 0.633E-03   0.327E+00 0.646E-03 -.646E-03   -.121E-02 -.110E-04 0.110E-04   -.273E-05 -.992E-07 0.991E-07
   0.580E+00 -.216E-02 -.216E-02   -.582E+00 0.216E-02 0.216E-02   0.126E-02 0.113E-04 0.113E-04   -.760E-06 0.129E-06 0.129E-06
   -.326E+00 0.633E-03 0.633E-03   0.327E+00 -.646E-03 -.646E-03   -.121E-02 0.110E-04 0.110E-04   -.273E-05 0.992E-07 0.991E-07
   -.428E-06 0.162E-11 -.417E-09   0.866E-14 0.571E-13 0.498E-13   -.322E-05 -.102E-19 -.271E-19   0.574E-08 -.780E-12 -.834E-12

 POSITION                                       TOTAL-FORCE (eV/Angst)
      0.01000      0.00000      0.00000        -0.032223      0.000000     -0.000000
      4.24649      0.00000      0.00000         0.001056      0.000000     -0.000000
      0.00000      4.24649      0.00000        -0.000312      0.000000      0.000000
      4.24649      4.24649      0.00000        -0.000438      0.000000     -0.000000
      0.00000      0.00000      4.24649        -0.000312     -0.000000     -0.000000
      4.24649      0.00000      4.24649        -0.000438      0.000000      0.000000
      0.00000      4.24649      4.24649        -0.000038      0.000000      0.000000
      4.24649      4.24649      4.24649        -0.000165     -0.000000      0.000000
      2.12324      2.12324      0.00000         0.004045      0.004738     -0.000000
      6.36973      2.12324      0.00000         0.003900     -0.004545      0.000000
      2.12324      6.36973      0.00000         0.004045     -0.004738      0.000000
      6.36973      6.36973      0.00000         0.003900      0.004545      0.000000
      2.12324      2.12324      4.24649         0.000229      0.000072      0.000000
      6.36973      2.12324      4.24649         0.000228     -0.000072      0.000000
      2.12324      6.36973      4.24649         0.000229     -0.000072     -0.000000
      6.36973      6.36973      4.24649         0.000228      0.000072     -0.000000
      2.12324      0.00000      2.12324         0.004045     -0.000000      0.004738
      6.36973      0.00000      2.12324         0.003900      0.000000     -0.004545
      2.12324      4.24649      2.12324         0.000229      0.000000      0.000072
      6.36973      4.24649      2.12324         0.000228      0.000000     -0.000072
      2.12324      0.00000      6.36973         0.004045      0.000000     -0.004738
      6.36973      0.00000      6.36973         0.003900      0.000000      0.004545
      2.12324      4.24649      6.36973         0.000229      0.000000     -0.000072
      6.36973      4.24649      6.36973         0.000228     -0.000000      0.000072
      0.00000      2.12324      2.12324        -0.000746     -0.000006     -0.000006
      4.24649      2.12324      2.12324         0.000562      0.000002      0.000002
      0.00000      6.36973      2.12324        -0.000746      0.000006     -0.000006
      4.24649      6.36973      2.12324         0.000562     -0.000002      0.000002
      0.00000      2.12324      6.36973        -0.000746     -0.000006      0.000006
      4.24649      2.12324      6.36973         0.000562      0.000002     -0.000002
      0.00000      6.36973      6.36973        -0.000746      0.000006      0.000006
      4.24649      6.36973      6.36973         0.000562     -0.000002     -0.000002
    total drift:                               -0.000004      0.000000     -0.000000

 mean value of Nose-termostat <S>:     1.000 mean value of <T> :     0.000
 mean temperature <T/S>/<1/S>  :     0.000