 vasp.4.6.28 25Jul05 complex
 executed on             LinuxIFC date 2016.10.19  17:43:49

 INCAR:
 POTCAR:   PAW_PBE Al 04Jan2001
 POTCAR:   PAW_PBE Al 04Jan2001
   VRHFIN =Al: s2p1

   TITEL  = PAW_PBE Al 04Jan2001
   POMASS =   26.982; ZVAL   =    3.000    mass and valenz
   ENMAX  =  240.300; ENMIN  =  180.225 eV
   QCUT   =   -4.203; QGAM   =    8.405    optimization parameters

   Description
     l     E      TYP  RCUT    TYP  RCUT
     0   .000     23  1.900
     0   .000     23  1.900
     1   .000     23  1.900
     1  1.000     23  1.900
     2   .000      7  1.900

 PAW_PBE Al 04Jan2001                   :

 POSCAR: Al
  positions in direct lattice

 ion  position               nearest neighbor table
   1  0.500  0.500  0.000-   2 2.80   3 2.80   4 2.80   2 2.80   3 2.80   2 2.80   4 2.80   2 2.80
                             3 2.80   4 2.80   3 2.80   4 2.80
   2  0.500  0.000  0.500-   1 2.80   3 2.80   4 2.80   1 2.80   4 2.80   1 2.80   3 2.80   1 2.80
                             3 2.80   4 2.80   4 2.80   3 2.80
   3  0.000  0.500  0.500-   1 2.80   2 2.80   4 2.80   1 2.80   4 2.80   2 2.80   4 2.80   4 2.80
                             1 2.80   2 2.80   1 2.80   2 2.80
   4  0.000  0.000  0.000-   1 2.80   2 2.80   3 2.80   2 2.80   3 2.80   1 2.80   3 2.80   3 2.80
                             1 2.80   2 2.80   2 2.80   1 2.80

  LATTYP: Found a simple cubic cell.
 ALAT       =     3.9565602423

  Lattice vectors:

 A1 = (   3.9565602423,   0.0000000000,   0.0000000000)
 A2 = (   0.0000000000,   3.9565602423,   0.0000000000)
 A3 = (   0.0000000000,   0.0000000000,   3.9565602423)
 Subroutine PRICEL returns following result:

  LATTYP: Found a face centered cubic cell.
 ALAT       =     3.9565602423

  Lattice vectors:

 A1 = (   1.9782801211,   1.9782801211,   0.0000000000)
 A2 = (   1.9782801211,   0.0000000000,  -1.9782801211)
 A3 = (   0.0000000000,   1.9782801211,  -1.9782801211)

   4 primitive cells build up your supercell.

Analysis of symmetry for initial positions (statically):

 Routine SETGRP: Setting up the symmetry group for a
 simple cubic supercell.

 Subroutine GETGRP returns: Found 48 space group operations
 (whereof 48 operations were pure point group operations)
 out of a pool of 48 trial point group operations.

The static configuration has the point symmetry O_h .

Analysis of symmetry for dynamics (positions and initial velocities):

 Subroutine DYNSYM returns: Found 48 space group operations
 (whereof 48 operations were pure point group operations)
 out of a pool of 48 trial space group operations
 (whereof 48 operations were pure point group operations)
 and found also     4 'primitive' translations

The dynamic configuration has the point symmetry O_h .

 KPOINTS: Automatic mesh

Automatic generation of k-mesh.
 generate k-points for:  13  13  13

 Subroutine IBZKPT returns following result:

 Found     84 irreducible k-points:

 Following reciprocal coordinates:
            Coordinates               Weight
  0.000000  0.000000  0.000000      1.000000
  0.076923  0.000000  0.000000      6.000000
  0.153846  0.000000  0.000000      6.000000
  0.230769  0.000000  0.000000      6.000000
  0.307692  0.000000  0.000000      6.000000
  0.384615  0.000000  0.000000      6.000000
  0.461538  0.000000  0.000000      6.000000
  0.076923  0.076923  0.000000     12.000000
  0.153846  0.076923  0.000000     24.000000
  0.230769  0.076923  0.000000     24.000000
  0.307692  0.076923  0.000000     24.000000
  0.384615  0.076923  0.000000     24.000000
  0.461538  0.076923  0.000000     24.000000
  0.153846  0.153846  0.000000     12.000000
  0.230769  0.153846  0.000000     24.000000
  0.307692  0.153846  0.000000     24.000000
  0.384615  0.153846  0.000000     24.000000
  0.461538  0.153846  0.000000     24.000000
  0.230769  0.230769  0.000000     12.000000
  0.307692  0.230769  0.000000     24.000000
  0.384615  0.230769  0.000000     24.000000
  0.461538  0.230769  0.000000     24.000000
  0.307692  0.307692  0.000000     12.000000
  0.384615  0.307692  0.000000     24.000000
  0.461538  0.307692  0.000000     24.000000
  0.384615  0.384615  0.000000     12.000000
  0.461538  0.384615  0.000000     24.000000
  0.461538  0.461538  0.000000     12.000000
  0.076923  0.076923  0.076923      8.000000
  0.153846  0.076923  0.076923     24.000000
  0.230769  0.076923  0.076923     24.000000
  0.307692  0.076923  0.076923     24.000000
  0.384615  0.076923  0.076923     24.000000
  0.461538  0.076923  0.076923     24.000000
  0.153846  0.153846  0.076923     24.000000
  0.230769  0.153846  0.076923     48.000000
  0.307692  0.153846  0.076923     48.000000
  0.384615  0.153846  0.076923     48.000000
  0.461538  0.153846  0.076923     48.000000
  0.230769  0.230769  0.076923     24.000000
  0.307692  0.230769  0.076923     48.000000
  0.384615  0.230769  0.076923     48.000000
  0.461538  0.230769  0.076923     48.000000
  0.307692  0.307692  0.076923     24.000000
  0.384615  0.307692  0.076923     48.000000
  0.461538  0.307692  0.076923     48.000000
  0.384615  0.384615  0.076923     24.000000
  0.461538  0.384615  0.076923     48.000000
  0.461538  0.461538  0.076923     24.000000
  0.153846  0.153846  0.153846      8.000000
  0.230769  0.153846  0.153846     24.000000
  0.307692  0.153846  0.153846     24.000000
  0.384615  0.153846  0.153846     24.000000
  0.461538  0.153846  0.153846     24.000000
  0.230769  0.230769  0.153846     24.000000
  0.307692  0.230769  0.153846     48.000000
  0.384615  0.230769  0.153846     48.000000
  0.461538  0.230769  0.153846     48.000000
  0.307692  0.307692  0.153846     24.000000
  0.384615  0.307692  0.153846     48.000000
[...]
  0.384615  0.307692  0.230769     48.000000
  0.461538  0.307692  0.230769     48.000000
  0.384615  0.384615  0.230769     24.000000
  0.461538  0.384615  0.230769     48.000000
  0.461538  0.461538  0.230769     24.000000
  0.307692  0.307692  0.307692      8.000000
  0.384615  0.307692  0.307692     24.000000
  0.461538  0.307692  0.307692     24.000000
  0.384615  0.384615  0.307692     24.000000
  0.461538  0.384615  0.307692     48.000000
  0.461538  0.461538  0.307692     24.000000
  0.384615  0.384615  0.384615      8.000000
  0.461538  0.384615  0.384615     24.000000
  0.461538  0.461538  0.384615     24.000000
  0.461538  0.461538  0.461538      8.000000

 Following cartesian coordinates:
            Coordinates               Weight
  0.000000  0.000000  0.000000      1.000000
  0.019053  0.000000  0.000000      6.000000
  0.038106  0.000000  0.000000      6.000000
  0.057159  0.000000  0.000000      6.000000
  0.076212  0.000000  0.000000      6.000000
  0.095265  0.000000  0.000000      6.000000
  0.114318  0.000000  0.000000      6.000000
  0.019053  0.019053  0.000000     12.000000
  0.038106  0.019053  0.000000     24.000000
  0.057159  0.019053  0.000000     24.000000
  0.076212  0.019053  0.000000     24.000000
  0.095265  0.019053  0.000000     24.000000
  0.114318  0.019053  0.000000     24.000000
  0.038106  0.038106  0.000000     12.000000
  0.057159  0.038106  0.000000     24.000000
  0.076212  0.038106  0.000000     24.000000
  0.095265  0.038106  0.000000     24.000000
  0.114318  0.038106  0.000000     24.000000
  0.057159  0.057159  0.000000     12.000000
  0.076212  0.057159  0.000000     24.000000
  0.095265  0.057159  0.000000     24.000000
  0.114318  0.057159  0.000000     24.000000
  0.076212  0.076212  0.000000     12.000000
  0.095265  0.076212  0.000000     24.000000
  0.114318  0.076212  0.000000     24.000000
  0.095265  0.095265  0.000000     12.000000
  0.114318  0.095265  0.000000     24.000000
  0.114318  0.114318  0.000000     12.000000
  0.019053  0.019053  0.019053      8.000000
  0.038106  0.019053  0.019053     24.000000
  0.057159  0.019053  0.019053     24.000000
  0.076212  0.019053  0.019053     24.000000
  0.095265  0.019053  0.019053     24.000000
  0.114318  0.019053  0.019053     24.000000
  0.038106  0.038106  0.019053     24.000000
  0.057159  0.038106  0.019053     48.000000
  0.076212  0.038106  0.019053     48.000000
  0.095265  0.038106  0.019053     48.000000
  0.114318  0.038106  0.019053     48.000000
  0.057159  0.057159  0.019053     24.000000
  0.076212  0.057159  0.019053     48.000000
  0.095265  0.057159  0.019053     48.000000
  0.114318  0.057159  0.019053     48.000000
  0.076212  0.076212  0.019053     24.000000
  0.095265  0.076212  0.019053     48.000000
  0.114318  0.076212  0.019053     48.000000
  0.095265  0.095265  0.019053     24.000000
  0.114318  0.095265  0.019053     48.000000
  0.114318  0.114318  0.019053     24.000000
  0.038106  0.038106  0.038106      8.000000
  0.057159  0.038106  0.038106     24.000000
  0.076212  0.038106  0.038106     24.000000
  0.095265  0.038106  0.038106     24.000000
  0.114318  0.038106  0.038106     24.000000
  0.057159  0.057159  0.038106     24.000000
  0.076212  0.057159  0.038106     48.000000
  0.095265  0.057159  0.038106     48.000000
  0.114318  0.057159  0.038106     48.000000
  0.076212  0.076212  0.038106     24.000000
  0.095265  0.076212  0.038106     48.000000
[...]
  0.095265  0.076212  0.057159     48.000000
  0.114318  0.076212  0.057159     48.000000
  0.095265  0.095265  0.057159     24.000000
  0.114318  0.095265  0.057159     48.000000
  0.114318  0.114318  0.057159     24.000000
  0.076212  0.076212  0.076212      8.000000
  0.095265  0.076212  0.076212     24.000000
  0.114318  0.076212  0.076212     24.000000
  0.095265  0.095265  0.076212     24.000000
  0.114318  0.095265  0.076212     48.000000
  0.114318  0.114318  0.076212     24.000000
  0.095265  0.095265  0.095265      8.000000
  0.114318  0.095265  0.095265     24.000000
  0.114318  0.114318  0.095265     24.000000
  0.114318  0.114318  0.114318      8.000000

 I would recommend the setting:
   dimension x,y,z NGX =    29 NGY =   29 NGZ =   29
 SYSTEM =  unknown system
 POSCAR =  Al

 Startparameter for this run:
   NWRITE =      2    write-flag & timer
   PREC   = accura    medium, high low
   ISTART =      0    job   : 0-new  1-cont  2-samecut
   ICHARG =      2    charge: 1-file 2-atom 10-const
   ISPIN  =      1    spin polarized calculation?
   LNONCOLLINEAR =      F non collinear calculations
   LSORBIT =      F    spin-orbit coupling
   INIWAV =      1    electr: 0-lowe 1-rand  2-diag
   LASPH  =      F    aspherical Exc in radial PAW
   METAGGA=      F    non-selfconsistent MetaGGA calc.

 Electronic Relaxation 1
   ENCUT  =  500.0 eV  36.75 Ry    6.06 a.u.   7.21  7.21  7.21*2*pi/ulx,y,z
   ENINI  =  500.0     initial cutoff
   ENAUG  =  291.1 eV  augmentation charge cutoff
   NELM   =     60;   NELMIN=  2; NELMDL=  0     # of ELM steps
   EDIFF  = 0.1E-07   stopping-criterion for ELM
   LREAL  =      F    real-space projection
   LCOMPAT=      F    compatible to vasp.4.4
   LREAL_COMPAT= F    compatible to vasp.4.5.1-3
   GGA_COMPAT  = T    GGA compatible to vasp.4.4-vasp.4.6
   LMAXPAW     = -100 max onsite density
   LMAXMIX     =    2 max onsite mixed and CHGCAR
   VOSKOWN=      0    Vosko Wilk Nusair interpolation
   ROPT   =    0.00000
 Ionic relaxation
[...]
   0.07692308  0.00000000  0.00000000       0.003
   0.15384615  0.00000000  0.00000000       0.003
   0.23076923  0.00000000  0.00000000       0.003
   0.30769231  0.00000000  0.00000000       0.003
   0.38461538  0.00000000  0.00000000       0.003
   0.46153846  0.00000000  0.00000000       0.003
   0.07692308  0.07692308  0.00000000       0.005
   0.15384615  0.07692308  0.00000000       0.011
   0.23076923  0.07692308  0.00000000       0.011
   0.30769231  0.07692308  0.00000000       0.011
   0.38461538  0.07692308  0.00000000       0.011
   0.46153846  0.07692308  0.00000000       0.011
   0.15384615  0.15384615  0.00000000       0.005
   0.23076923  0.15384615  0.00000000       0.011
   0.30769231  0.15384615  0.00000000       0.011
   0.38461538  0.15384615  0.00000000       0.011
   0.46153846  0.15384615  0.00000000       0.011
   0.23076923  0.23076923  0.00000000       0.005
   0.30769231  0.23076923  0.00000000       0.011
   0.38461538  0.23076923  0.00000000       0.011
   0.46153846  0.23076923  0.00000000       0.011
   0.30769231  0.30769231  0.00000000       0.005
   0.38461538  0.30769231  0.00000000       0.011
   0.46153846  0.30769231  0.00000000       0.011
   0.38461538  0.38461538  0.00000000       0.005
   0.46153846  0.38461538  0.00000000       0.011
   0.46153846  0.46153846  0.00000000       0.005
   0.07692308  0.07692308  0.07692308       0.004
   0.15384615  0.07692308  0.07692308       0.011
   0.23076923  0.07692308  0.07692308       0.011
   0.30769231  0.07692308  0.07692308       0.011
   0.38461538  0.07692308  0.07692308       0.011
   0.46153846  0.07692308  0.07692308       0.011
   0.15384615  0.15384615  0.07692308       0.011
   0.23076923  0.15384615  0.07692308       0.022
   0.30769231  0.15384615  0.07692308       0.022
   0.38461538  0.15384615  0.07692308       0.022
   0.46153846  0.15384615  0.07692308       0.022
   0.23076923  0.23076923  0.07692308       0.011
   0.30769231  0.23076923  0.07692308       0.022
   0.38461538  0.23076923  0.07692308       0.022
   0.46153846  0.23076923  0.07692308       0.022
   0.30769231  0.30769231  0.07692308       0.011
   0.38461538  0.30769231  0.07692308       0.022
   0.46153846  0.30769231  0.07692308       0.022
   0.38461538  0.38461538  0.07692308       0.011
   0.46153846  0.38461538  0.07692308       0.022
   0.46153846  0.46153846  0.07692308       0.011
   0.15384615  0.15384615  0.15384615       0.004
   0.23076923  0.15384615  0.15384615       0.011
   0.30769231  0.15384615  0.15384615       0.011
   0.38461538  0.15384615  0.15384615       0.011
   0.46153846  0.15384615  0.15384615       0.011
   0.23076923  0.23076923  0.15384615       0.011
   0.30769231  0.23076923  0.15384615       0.022
   0.38461538  0.23076923  0.15384615       0.022
   0.46153846  0.23076923  0.15384615       0.022
   0.30769231  0.30769231  0.15384615       0.011
   0.38461538  0.30769231  0.15384615       0.022
[...]
   0.38461538  0.30769231  0.23076923       0.022
   0.46153846  0.30769231  0.23076923       0.022
   0.38461538  0.38461538  0.23076923       0.011
   0.46153846  0.38461538  0.23076923       0.022
   0.46153846  0.46153846  0.23076923       0.011
   0.30769231  0.30769231  0.30769231       0.004
   0.38461538  0.30769231  0.30769231       0.011
   0.46153846  0.30769231  0.30769231       0.011
   0.38461538  0.38461538  0.30769231       0.011
   0.46153846  0.38461538  0.30769231       0.022
   0.46153846  0.46153846  0.30769231       0.011
   0.38461538  0.38461538  0.38461538       0.004
   0.46153846  0.38461538  0.38461538       0.011
   0.46153846  0.46153846  0.38461538       0.011
   0.46153846  0.46153846  0.46153846       0.004

 position of ions in fractional coordinates (direct lattice)
   0.50000000  0.50000000  0.00000000
   0.50000000  0.00000000  0.50000000
   0.00000000  0.50000000  0.50000000
   0.00000000  0.00000000  0.00000000

 position of ions in cartesian coordinates  (Angst):
   1.97828012  1.97828012  0.00000000
   1.97828012  0.00000000  1.97828012
   0.00000000  1.97828012  1.97828012
   0.00000000  0.00000000  0.00000000

 k-point  1 :  0.00000.00000.0000  plane waves:   1575
 k-point  2 :  0.07690.00000.0000  plane waves:   1567
 k-point  3 :  0.15380.00000.0000  plane waves:   1579
 k-point  4 :  0.23080.00000.0000  plane waves:   1570
 k-point  5 :  0.30770.00000.0000  plane waves:   1558
 k-point  6 :  0.38460.00000.0000  plane waves:   1570
 k-point  7 :  0.46150.00000.0000  plane waves:   1562
 k-point  8 :  0.07690.07690.0000  plane waves:   1571
 k-point  9 :  0.15380.07690.0000  plane waves:   1576
 k-point 10 :  0.23080.07690.0000  plane waves:   1566
 k-point 11 :  0.30770.07690.0000  plane waves:   1569
 k-point 12 :  0.38460.07690.0000  plane waves:   1569
 k-point 13 :  0.46150.07690.0000  plane waves:   1571
 k-point 14 :  0.15380.15380.0000  plane waves:   1568
 k-point 15 :  0.23080.15380.0000  plane waves:   1567
 k-point 16 :  0.30770.15380.0000  plane waves:   1569
 k-point 17 :  0.38460.15380.0000  plane waves:   1565
 k-point 18 :  0.46150.15380.0000  plane waves:   1575
 k-point 19 :  0.23080.23080.0000  plane waves:   1570
 k-point 20 :  0.30770.23080.0000  plane waves:   1576
 k-point 21 :  0.38460.23080.0000  plane waves:   1565
 k-point 22 :  0.46150.23080.0000  plane waves:   1575
 k-point 23 :  0.30770.30770.0000  plane waves:   1584
 k-point 24 :  0.38460.30770.0000  plane waves:   1584
 k-point 25 :  0.46150.30770.0000  plane waves:   1576
 k-point 26 :  0.38460.38460.0000  plane waves:   1594
 k-point 27 :  0.46150.38460.0000  plane waves:   1583
 k-point 28 :  0.46150.46150.0000  plane waves:   1588
 k-point 29 :  0.07690.07690.0769  plane waves:   1566
 k-point 30 :  0.15380.07690.0769  plane waves:   1577
 k-point 31 :  0.23080.07690.0769  plane waves:   1570
 k-point 32 :  0.30770.07690.0769  plane waves:   1566
 k-point 33 :  0.38460.07690.0769  plane waves:   1570
 k-point 34 :  0.46150.07690.0769  plane waves:   1572
 k-point 35 :  0.15380.15380.0769  plane waves:   1568
 k-point 36 :  0.23080.15380.0769  plane waves:   1570
 k-point 37 :  0.30770.15380.0769  plane waves:   1563
 k-point 38 :  0.38460.15380.0769  plane waves:   1571
 k-point 39 :  0.46150.15380.0769  plane waves:   1576
 k-point 40 :  0.23080.23080.0769  plane waves:   1573
 k-point 41 :  0.30770.23080.0769  plane waves:   1573
 k-point 42 :  0.38460.23080.0769  plane waves:   1570
 k-point 43 :  0.46150.23080.0769  plane waves:   1574
 k-point 44 :  0.30770.30770.0769  plane waves:   1580
 k-point 45 :  0.38460.30770.0769  plane waves:   1579
 k-point 46 :  0.46150.30770.0769  plane waves:   1575
 k-point 47 :  0.38460.38460.0769  plane waves:   1580
 k-point 48 :  0.46150.38460.0769  plane waves:   1573
 k-point 49 :  0.46150.46150.0769  plane waves:   1578
 k-point 50 :  0.15380.15380.1538  plane waves:   1569
 k-point 51 :  0.23080.15380.1538  plane waves:   1571
 k-point 52 :  0.30770.15380.1538  plane waves:   1574
 k-point 53 :  0.38460.15380.1538  plane waves:   1569
 k-point 54 :  0.46150.15380.1538  plane waves:   1572
 k-point 55 :  0.23080.23080.1538  plane waves:   1571
 k-point 56 :  0.30770.23080.1538  plane waves:   1569
 k-point 57 :  0.38460.23080.1538  plane waves:   1571
 k-point 58 :  0.46150.23080.1538  plane waves:   1566
 k-point 59 :  0.30770.30770.1538  plane waves:   1573
 k-point 60 :  0.38460.30770.1538  plane waves:   1579
[...]
 k-point 70 :  0.38460.30770.2308  plane waves:   1574
 k-point 71 :  0.46150.30770.2308  plane waves:   1560
 k-point 72 :  0.38460.38460.2308  plane waves:   1567
 k-point 73 :  0.46150.38460.2308  plane waves:   1575
 k-point 74 :  0.46150.46150.2308  plane waves:   1575
 k-point 75 :  0.30770.30770.3077  plane waves:   1568
 k-point 76 :  0.38460.30770.3077  plane waves:   1568
 k-point 77 :  0.46150.30770.3077  plane waves:   1561
 k-point 78 :  0.38460.38460.3077  plane waves:   1575
 k-point 79 :  0.46150.38460.3077  plane waves:   1576
 k-point 80 :  0.46150.46150.3077  plane waves:   1570
 k-point 81 :  0.38460.38460.3846  plane waves:   1565
 k-point 82 :  0.46150.38460.3846  plane waves:   1566
 k-point 83 :  0.46150.46150.3846  plane waves:   1579
 k-point 84 :  0.46150.46150.4615  plane waves:   1577

 maximum and minimum number of plane-waves per node :   1594  1558

 maximum number of plane-waves:   1594
 maximal index in each direction:
   IXMAX=  7   IYMAX=  7   IZMAX=  7
   IXMIN= -7   IYMIN= -7   IZMIN= -7

 NGX is ok and might be reduce to  30
 NGY is ok and might be reduce to  30
 NGZ is ok and might be reduce to  30

 parallel 3dFFT wavefunction:
    minimum data exchange during FFTs selected (reduces bandwidth)
 parallel 3dFFT charge:
    minimum data exchange during FFTs selected (reduces bandwidth)

Broyden mixing: mesh for mixing (old mesh)
   NGX = 15   NGY = 15   NGZ = 15
  (NGX  = 60   NGY  = 60   NGZ  = 60)
 gives a total of   3375 points
 initial charge density was supplied:
 charge density of overlapping atoms calculated
 number of electron   12.0000000 magnetization
 keeping initial charge density in first step

 Maximum index for augmentation-charges         2444 (set IRDMAX)

 First call to EWALD:  gamma=   0.448
 Maximum number of real-space cells 3x 3x 3
 Maximum number of reciprocal cells 3x 3x 3

----------------------------------------- Iteration    1(   1)  ---------------------------------------

 eigenvalue-minimisations  :  2688
 total energy-change (2. order) : 0.6718726E+01  (-0.4056888E+03)
 number of electron   12.0000000 magnetization
 augmentation part    12.0000000 magnetization

 Free energy of the ion-electron system (eV)
  alpha Z        PSCENC =        -0.86766550
  Ewald energy   TEWEN  =      -300.35652811
  -1/2 Hartree   DENC   =        -0.32679810
  -V(xc)+E(xc)   XCENC  =      -104.49609156
  PAW double counting   =       142.21701965      -14.39593217
  entropy T*S    EENTRO =        -0.00005151
  eigenvalues    EBANDS =        70.79113184
  atomic energy  EATOM  =       214.15364153
  free energy    TOTEN  =         6.71872607 eV

  energy without entropy =        6.71877758  energy(sigma->0) =        6.71875183

[...]

 eigenvalue-minimisations  :  3568
 total energy-change (2. order) :-0.2106983E+02  (-0.1977149E+02)
 number of electron   12.0000000 magnetization
 augmentation part    12.0000000 magnetization

[...]

 Broyden mixing:
  rms(total) = 0.19213E+00    rms(broyden)= 0.19213E+00
  rms(prec ) = 0.44270E+00
  weight for this iteration     100.00

[...]

 eigenvalues of (default mixing * dielectric matrix)
  average eigenvalue GAMMA=   2.6314
  2.6314

[...]

 eigenvalue-minimisations  :  2432
 total energy-change (2. order) : 0.1241007E-06  (-0.1184074E-09)
 number of electron   12.0000000 magnetization
 augmentation part    -0.1501918 magnetization

[...]

 Broyden mixing:
  rms(total) = 0.76576E-06    rms(broyden)= 0.76571E-06
  rms(prec ) = 0.14903E-05
  weight for this iteration     100.00

 eigenvalues of (default mixing * dielectric matrix)
  average eigenvalue GAMMA=   1.9029
  2.6984  2.6462  2.6462  2.4743  0.9954  0.9954  0.8641

[...]

----------------------------------------- Iteration    1(  13)  ---------------------------------------

 eigenvalue-minimisations  :  1816
 total energy-change (2. order) :-0.1652097E-08  (-0.3074432E-11)
 number of electron   12.0000000 magnetization
 augmentation part    -0.1501918 magnetization

 Free energy of the ion-electron system (eV)
  alpha Z        PSCENC =        -0.86766550
  Ewald energy   TEWEN  =      -300.35652811
  -1/2 Hartree   DENC   =        -0.46217780
  -V(xc)+E(xc)   XCENC  =      -104.00312188
  PAW double counting   =       143.53072684      -15.80504442
  entropy T*S    EENTRO =        -0.00010473
  eigenvalues    EBANDS =        48.88940941
  atomic energy  EATOM  =       214.15364153
  free energy    TOTEN  =       -14.92086466 eV

  energy without entropy =      -14.92075993  energy(sigma->0) =      -14.92081230

 average (electrostatic) potential at core
  the test charge radii are     1.0406
  (the norm of the test charge is              1.0000)
       1 -71.8576       2 -71.8576       3 -71.8576       4 -71.8576

 E-fermi :   8.6627     XC(G=0): -10.4288     alpha+bet :-15.8521
   add alpha+bet to get absolut eigen values

 k-point   1 :       0.0000    0.0000    0.0000
  band No.  band energies     occupation
      1      -2.9018      2.00000
      2       5.6014      2.00000
      3       5.6014      2.00000
      4       5.6014      2.00000
      5       7.0601      2.00000
      6       7.0601      2.00000
      7       7.0601      2.00000
      8      13.9504      0.00000
      9      13.9504      0.00000
     10      13.9504      0.00000
     11      14.5800      0.00000
     12      14.5800      0.00000
     13      14.5800      0.00000
     14      14.5800      0.00000
     15      14.5800      0.00000
     16      14.5800      0.00000

[...]

 k-point  84 :       0.4615    0.4615    0.4615
  band No.  band energies     occupation
      1       2.9998      2.00000
      2       3.6638      2.00000
      3       3.6638      2.00000
      4       3.6638      2.00000
      5       4.4561      2.00000
      6       4.4561      2.00000
      7       4.4561      2.00000
      8       5.1144      2.00000
      9      19.5610      0.00000
     10      19.5610      0.00000
     11      19.5610      0.00000
     12      19.6988      0.00000
     13      19.6988      0.00000
     14      19.6988      0.00000
     15      20.2915      0.00000
     16      20.2915      0.00000

 soft charge-density along one line, spin component           1
         0         1         2         3         4         5         6         7         8         9
 total charge-density along one line

------------------------ aborting loop because EDIFF is reached ----------------------------------------

  FREE ENERGIE OF THE ION-ELECTRON SYSTEM (eV)
  free  energy   TOTEN  =       -14.920865 eV

  energy  without entropy=      -14.920760  energy(sigma->0) =      -14.920812

  FORCE on cell =-STRESS in cart. coord.  units (eV/reduce length):
  Direction    X        Y        Z        XY       YZ       ZX
  Alpha Z     -0.87     -0.87     -0.87
  Ewald     -100.12   -100.12   -100.12      0.00      0.00      0.00
  Hartree      0.15      0.15      0.15     -0.00     -0.00     -0.00
  E(xc)      -34.97    -34.97    -34.97      0.00     -0.00     -0.00
  Local        2.45      2.45      2.45     -0.00     -0.00      0.00
  n-local     75.60     76.51     78.72      0.38      1.28      0.53
  augment     -4.00     -4.00     -4.00      0.00      0.00      0.00
  Kinetic     59.67     62.12     65.95      2.05     -8.49     -1.23
  Total        2.17      2.17      2.17      0.00     -0.00     -0.00
  in kB       56.23     56.23     56.23      0.00     -0.00     -0.00

 VOLUME and BASIS-vectors are now :
  energy-cutoff  :      500.00
  volume of cell :       61.94
      direct lattice vectors                 reciprocal lattice vectors
     3.956560242  0.000000000  0.000000000     0.252744793  0.000000000  0.000000000
     0.000000000  3.956560242  0.000000000     0.000000000  0.252744793  0.000000000
     0.000000000  0.000000000  3.956560242     0.000000000  0.000000000  0.252744793

  length of vectors
     3.956560242  3.956560242  3.956560242     0.252744793  0.252744793  0.252744793

 FORCES acting on ions
    electron-ion (+dipol)            ewald-force                    non-local-force                 convergence-correction
   -.181E-14 -.120E-13 -.154E-13   0.242E-15 -.113E-17 -.507E-16   0.146E-26 -.202E-26 -.242E-26   0.776E-15 -.121E-16 0.105E-15
   -.147E-14 0.710E-15 0.266E-13   0.195E-15 -.232E-15 0.299E-15   0.162E-26 0.485E-26 -.242E-26   0.781E-15 0.118E-16 -.103E-15
   -.306E-14 -.376E-14 -.236E-14   -.135E-15 0.373E-15 0.279E-15   -.565E-26 -.808E-27 0.242E-26   -.786E-15 -.149E-16 -.102E-15
   -.294E-14 -.623E-15 0.110E-14   -.182E-15 0.142E-15 -.769E-15   -.263E-26 -.485E-26 0.000E+00   -.783E-15 0.167E-16 0.101E-15
   -.928E-14 -.157E-13 0.100E-13   0.120E-15 0.281E-15 -.242E-15   -.520E-26 -.283E-26 -.242E-26   -.125E-16 0.141E-17 0.418E-18

 POSITION                                       TOTAL-FORCE (eV/Angst)
      1.97828      1.97828      0.00000         0.000000      0.000000     -0.000000
      1.97828      0.00000      1.97828         0.000000      0.000000     -0.000000
      0.00000      1.97828      1.97828         0.000000     -0.000000     -0.000000
      0.00000      0.00000      0.00000         0.000000     -0.000000      0.000000
    total drift:                               -0.000000     -0.000000      0.000000

 mean value of Nose-termostat <S>:     1.000 mean value of <T> :     0.000
 mean temperature <T/S>/<1/S>  :     0.000